 # Version information for this restart file 
 # current date 2024-11-22 16:15:19.567
 # current working dir /scratch/work/courses/CHEM-GA-2671-2024fa/students/ra3194/comp-lab-class-2024/Week12-IntroAIMD/Runs/Proton
 # Program compiled at                              Sat Dec 12 18:27:15 EST 2020
 # Program compiled on                                         cs001.nyu.cluster
 # Program compiled for                                                nyu-intel
 # Source code revision number                                       git:8c64c6e
 &GLOBAL
   PRINT_LEVEL  LOW
   PROJECT_NAME proton_aimd_1ns_every0.5fs
   RUN_TYPE  MD
   WALLTIME 21600
 &END GLOBAL
 &MOTION
   &GEO_OPT
     OPTIMIZER  BFGS
     MAX_ITER  100
     MAX_DR     3.0000000000000001E-03
     &BFGS
     &END BFGS
   &END GEO_OPT
   &MD
     ENSEMBLE  NVT
     STEPS  1000
     TIMESTEP     4.9999999999999994E-01
     STEP_START_VAL  998
     TIME_START_VAL     4.9899999999999631E+02
     ECONS_START_VAL    -1.1027954174996337E+03
     TEMPERATURE     3.0000000000000000E+02
     &THERMOSTAT
       TYPE  GLE
       REGION  MASSIVE
       &GLE
         NDIM  5
         A_SCALE     1.0000000000000000E+00
         A_LIST     1.8595758612559999E+02    2.7263853498399998E-01    1.1526100454610001E+01   -3.6414578262600003E+01 \
             2.3173375816020001E+02
         A_LIST    -2.7809524712060002E-01    8.5951591808710006E-05    7.2189048017650004E-01   -1.9844539343859999E-01 \
             4.2409257583420001E-01
         A_LIST    -1.4825808131210000E+01   -7.2189048017650004E-01    1.3590902121280000E+00    5.1498896280349999E+00 \
            -9.9949268450990001E+00
         A_LIST    -1.0372189126880000E+01    1.9844539343859999E-01   -5.1498896280349999E+00    2.6661910891169999E+01 \
             1.1507715495310000E+01
         A_LIST     2.1801346360420001E+02   -4.2409257583420001E-01    9.9949268450990001E+00   -1.1507715495310000E+01 \
             3.0958394565589998E+02
         &THERMOSTAT_ENERGY
               2.3964117649983869E-03
              -5.8287609836857302E-05
              -2.0249018436338776E-03
               8.3227833770904702E-03
              -9.9795272377033693E-03
              -5.1081341036534854E-03
               4.4552804938406644E-03
              -3.7877302236578392E-03
               3.4508250607454996E-03
               4.2865860013758606E-03
               7.1517946519739500E-03
              -4.2351953753158086E-03
              -5.3390583375846267E-03
              -5.1960526751686246E-03
               4.3419045590730393E-03
              -8.0088504065253842E-03
               7.0032329736004545E-03
              -2.9911076475123946E-03
               4.6072682747947454E-03
               4.0519160355989965E-04
               1.2847203736423148E-03
               1.2410752547387131E-03
              -8.8762420979061601E-03
               5.8150191147536470E-04
               4.9186163190206779E-04
              -6.1508457107871924E-03
               1.5928322207844970E-03
               7.1984728492133230E-03
               4.0775880022516408E-03
               1.9408657846854106E-03
              -5.4811807110600663E-03
               2.0566319062901789E-03
               8.5806883672730917E-03
               2.1039960215245555E-03
              -1.2978861871230034E-02
               1.1753757360714379E-02
              -3.2229316712085103E-03
               1.5432806145453794E-03
               2.4330812249091701E-04
              -7.5061043904374111E-03
               5.9672075958551053E-03
               6.4143977462328733E-04
               5.0213234177117682E-03
               2.7079012935742473E-03
              -2.8191792222011475E-03
               1.2818416204889006E-03
              -2.8498328749007509E-03
               3.0348572783187337E-03
               8.2958634431095843E-04
              -1.1823410230800719E-03
               3.6724807904018448E-03
              -5.5820246577143479E-03
              -4.8975697770538137E-03
               4.1574483445773278E-03
              -4.8671330935375432E-03
               3.7553701441775294E-03
              -2.1922165691399243E-03
               4.2632628497847255E-03
               9.5953060201707844E-05
               5.8196475758882683E-03
              -4.3644474054007369E-03
               2.7861791236321928E-03
               1.2219947730727368E-02
              -4.3854919196883602E-03
              -1.4404965556637014E-04
               1.8830103414464578E-03
              -4.7944090510730524E-03
               6.2518848829125409E-03
               6.8805179825262089E-03
               1.2280959573522706E-03
              -8.0490618632560857E-04
               2.2890742243322363E-03
              -3.9044888280777182E-03
               1.0754250844500211E-03
              -4.5133654424579141E-03
              -7.9904587079440981E-03
               6.9212425705323958E-03
               6.1374740911890602E-03
               1.0415394900314326E-02
              -3.4724037101082055E-03
              -3.0519719438838523E-03
              -1.5855373864497632E-03
               2.1506901644505320E-03
              -1.4971487396785334E-04
               2.4394944454846721E-03
               5.6417496171045339E-03
              -1.3174002178872471E-03
               9.8882221949475428E-04
               4.6361201297010751E-03
              -4.4562864671389363E-03
               5.6590110801513190E-03
              -2.9349853126524514E-03
               2.3515191377960040E-03
               2.5275404527284060E-03
              -1.3862371385676829E-02
               1.0622099721221962E-02
               4.5561066573066586E-03
               2.8621560718311567E-03
               4.1988392923967780E-03
               5.1231204743481277E-03
               2.2963665940227223E-03
              -1.0792886658323481E-03
              -6.2644516878656688E-03
               1.5104302371711303E-03
               3.2675156391662129E-03
               1.4019427801788048E-02
               1.2100237348351267E-03
              -1.8889953295777562E-03
               6.2767657306811372E-03
              -2.2406117916121443E-03
              -3.3077468346789669E-04
              -8.3464872756837272E-03
               6.0895951561718877E-03
               9.0236127310350973E-03
               2.0588157075977845E-03
               5.4217665506379360E-03
              -1.0664841016511731E-02
               4.3443987825080039E-03
               1.5228360545180421E-03
              -1.8301018759573154E-03
               2.0471613250059766E-03
               2.0470180332439161E-03
               2.9814658921615629E-03
               5.6855012519871125E-03
              -3.6879967924559687E-03
              -8.1009016896839044E-03
               5.9923436746244386E-03
              -1.2898807138595693E-03
               5.3076740842685167E-03
              -3.9826078457637169E-03
              -8.7974900963737560E-03
               5.9160614285617514E-03
               6.9300841598953855E-03
              -4.1297490987744845E-03
              -2.4387711794496229E-04
               4.8610829933309020E-03
              -5.8255316486310221E-04
              -4.5087578784824738E-03
               1.4241495582547456E-03
              -9.9048113460840359E-03
               2.8081125082250707E-03
               2.3689343580285036E-03
               8.2904598917662303E-03
              -1.7951075993048146E-04
              -6.9631938700104763E-03
              -3.1855865339721285E-03
               9.9845513205761502E-03
              -7.5504988444109362E-03
              -2.8661324794226079E-03
               1.5157204604809304E-03
              -4.1711006834253663E-03
               8.4138573891405655E-03
              -2.9596338085396338E-03
              -1.0579484583778183E-03
              -1.4365709761621137E-03
               1.3233399248345386E-03
               1.2919719369371987E-03
              -2.3570751253771914E-03
              -1.2096739514789929E-03
               2.1435707891751020E-03
              -1.8078778753064130E-04
              -2.1416098199873454E-03
              -1.1062517735343645E-03
              -1.3959804338492222E-03
               4.6245754849879262E-03
               9.5748373072531666E-03
               8.7104150218311107E-03
              -1.1281138556957398E-02
              -7.6822891502408694E-03
               3.1832117796629770E-03
              -2.9247237296058286E-03
               1.1048131833908599E-03
              -7.3897037780961067E-04
               6.1518357639318952E-04
              -1.3190491590507369E-03
               9.4323739017474085E-03
              -1.4119445049208696E-02
              -3.1998883709052910E-03
              -1.0510721834894525E-03
               5.6615213147310434E-03
               2.9946124428431890E-03
              -2.0199593303392954E-03
               1.3642558789491142E-03
              -9.5391863119634757E-03
               5.8252471400207558E-03
              -1.3367263480559605E-03
              -9.8339877646456825E-03
               6.3616345654120511E-03
              -2.6461640967390598E-03
               1.8605544897493569E-03
               2.8034212699943948E-03
              -3.2892101253967822E-03
              -3.1283772068373267E-03
               4.7370463698465327E-03
               7.3429214011820499E-03
               1.4436245718080988E-04
              -4.7730627632835403E-03
               8.6168112597729517E-03
              -1.9981995640947813E-03
               1.0063098499796270E-03
              -1.2148673335442960E-03
              -9.3732342400722063E-03
               1.0379564101810592E-02
               2.4009366247588538E-03
              -9.5205955054852951E-04
               3.9647079578495944E-03
              -6.8268723080004692E-03
               2.7934312959325383E-03
               4.0997379457487874E-03
               2.7217932798325180E-03
              -1.1263795152878079E-03
              -3.1029323929248473E-03
               1.7084219414529194E-03
              -6.2730952733479912E-03
               2.6939750391574745E-03
               2.7139647211573046E-03
              -2.9007043893290534E-03
               5.2913354745330946E-03
              -1.6563952817947702E-03
              -4.4954860397480286E-03
              -6.2920166737428091E-05
              -6.2619766144509136E-03
              -1.5571166073549861E-03
               9.8670257502529799E-05
               2.1973665808187972E-03
               1.4582989071119448E-03
               1.5957074826699418E-03
               3.9505985845888951E-03
              -1.2939087401559243E-03
               7.3250779082271469E-04
              -5.6173712735199883E-03
              -5.5678769402679063E-03
               8.3784642956118670E-03
              -7.8994447590476496E-03
               4.4743108780218371E-03
              -1.3919609393745372E-03
              -1.6052922166813468E-03
              -8.2178604187941199E-05
              -1.7534651598596796E-03
              -8.2310307206301945E-04
               7.2096477999544530E-03
              -8.9163159183402556E-03
               6.4651900482596480E-03
               2.5597526838503728E-03
               2.4638121672368157E-03
               5.8308668516398134E-05
              -6.2379992219288556E-03
              -2.4346387513807777E-03
               2.9805217182113015E-03
              -3.0117691074298073E-03
               4.3481712314459931E-03
              -2.0325162867689084E-03
              -9.6548680108573086E-03
              -3.0163750164598421E-03
               4.8412726766245101E-04
              -4.8457446470700806E-03
               1.6474591540787585E-02
              -7.5897833975717734E-03
               3.0299378964650549E-03
              -1.5267833270442207E-02
               1.0264724984726017E-02
               1.8370243700554882E-03
              -3.7786302695819152E-03
              -1.4848319576881597E-03
               3.7850222816162809E-03
               1.3624752415489314E-03
               1.4934966261137906E-03
               6.4787300138095675E-03
              -3.0529684612481669E-03
               7.8650521020417717E-03
               3.0683919369558367E-02
               1.9897079921341911E-03
               1.4893374100746192E-02
               5.1389455526762735E-03
              -1.1271989429421747E-03
              -4.9466983729414883E-04
              -6.4764386898265112E-03
               7.5741140102919356E-03
              -2.3551936890292258E-03
               3.7987511191614346E-03
               2.2774787602591064E-03
              -8.8568299883186648E-03
               3.4586954880029227E-03
               1.5960915646128834E-03
               3.6042050305454859E-03
               3.5192873411747658E-03
              -7.8785563985555966E-04
               4.1476597126943069E-03
              -1.0447715392069434E-02
               1.1111374462441618E-02
               1.0215372968506078E-03
               2.5366848132793328E-03
              -3.3966255360618142E-04
               3.4499181849655535E-03
               3.7674819371837833E-03
               9.4030027629252709E-04
              -8.2697932200571176E-03
               5.6311775144578169E-03
               4.1981552159039634E-03
              -7.8285164921857841E-03
              -3.6094541555429676E-03
               4.8020790791695432E-03
               1.8168840752599610E-03
               1.3005880307133594E-02
              -4.5266733260986985E-03
              -3.8916716176669993E-03
              -5.3882908777104430E-03
              -4.6853832984560259E-03
               1.7749514288461390E-03
               6.9418114547337524E-03
              -2.3160621452622859E-03
              -3.2782020975041649E-03
              -2.6904889851707887E-03
              -2.0466526735240479E-04
               4.0032103304994974E-04
              -6.2387469145688398E-03
              -9.2781072970584480E-03
               1.1193566245676955E-03
              -5.7241757751470314E-03
              -3.9781154557177326E-03
               4.1252434944429855E-03
              -7.9132492419941642E-05
               3.0362559486335795E-03
              -3.8163938993313563E-03
               3.1372250556713746E-03
               6.4315701379533685E-03
               3.3914672407804308E-03
               1.4304149075102593E-03
               2.5377052199189597E-03
               3.1444521913912579E-05
              -2.4739749417906913E-03
               1.2620208233389658E-03
               4.6052693008582233E-03
               2.5454249231796593E-04
              -3.0669652334826729E-03
               6.6764177820552982E-04
               2.1587189115847187E-03
              -3.4459083647968417E-03
               1.8607219167188847E-03
               5.9726433974367967E-03
              -7.7653170179689925E-03
               1.7463034518676852E-03
               1.0456166130202456E-02
              -1.5031111463060095E-03
              -3.9283990426357848E-04
               1.9880738355137388E-03
               1.7337981392452394E-03
              -5.5766924439227582E-03
               4.2942928770107426E-03
              -2.0253700826249705E-03
              -4.8406955924778792E-03
              -1.3916986244098799E-03
              -9.0134938415187705E-04
               9.4938032064483099E-04
               2.9336595728800623E-03
              -2.7768164572209331E-03
              -1.7461427817814120E-03
               9.9430087259580555E-04
              -5.7605496337449717E-03
               3.0233709713613664E-03
              -2.9159183597560379E-03
               5.5791146518318962E-03
               4.6618779808036493E-03
              -3.4436872308618404E-04
              -1.7983724576320708E-03
               2.5688654770694569E-03
               9.1927885932021700E-03
               6.8967673300671774E-03
              -1.7467314399269629E-02
               8.2816398841223837E-04
              -2.9815886128627222E-03
               3.8418973201650433E-03
              -1.4421134208264341E-03
              -1.5327764990245864E-03
               2.8636874230156658E-04
              -1.2739904086610529E-03
              -7.4300185538079978E-03
              -8.0963397692126512E-03
              -7.1301496549375561E-03
               6.0682133091101093E-03
               3.6103198293540874E-03
              -1.3360009147109027E-03
              -3.1640847276675861E-03
              -1.4288241881614033E-03
              -8.1627437759061727E-03
              -6.1850723093958963E-04
               3.6654743334966372E-03
               3.3116541465259201E-03
              -3.9832044576861656E-03
               5.7678009468911324E-03
              -3.2087290582754127E-03
               4.8586026558504747E-03
              -1.4456925758971062E-03
              -6.0304262432601891E-03
               4.7984727940628908E-03
               1.0736008486568151E-04
               3.6999042015182539E-04
              -4.3670465594268309E-04
              -1.4523785708286147E-03
              -3.1775435359010077E-03
              -3.4644693610651645E-04
               3.0418101697724034E-03
              -8.0801058037741709E-04
              -1.2193190157575606E-03
               6.4994693762247173E-04
               6.3041944417765606E-03
               1.4365800205108326E-03
              -4.7764631401112497E-03
              -2.2985277852240275E-04
               3.5869502145576379E-03
               3.0756018208829895E-03
              -6.0363941686911898E-04
              -2.5881869932080602E-03
              -3.7150573212448449E-03
               1.2163674817905871E-03
              -1.2614521864946896E-03
               1.0860267522351749E-03
               3.4021014268309350E-04
               1.9023671211725491E-03
               2.0296489958959107E-03
               5.2601376880618816E-03
              -2.3706537751693722E-03
              -2.7247359406130348E-03
              -1.3528779686158880E-03
               7.6233084359716881E-03
              -4.9383412308013437E-04
               3.1169421606048490E-03
              -6.1133814626239463E-03
               4.8295086488574413E-04
               9.7055404417583507E-03
              -6.5713370718973275E-03
              -4.7335417519914734E-03
              -1.4658231820664294E-02
               1.1525563356966832E-02
               1.1875198571441670E-02
               1.3991540983153438E-03
              -4.8293442193386490E-03
              -1.4085569379345760E-03
              -8.4407131288664428E-04
               2.3672258137094398E-03
               1.1008660242062906E-02
              -8.6645201955893886E-04
               3.4526911307830647E-04
               4.1161222776015145E-03
              -3.9951436124324906E-03
               6.0483427862606668E-03
               8.9434399789480225E-03
               6.9076365047285437E-03
               1.7108419095585429E-03
              -8.0888926600402918E-03
              -6.3987877304360740E-04
              -6.5850324494043412E-03
               5.8237208030616303E-03
              -3.5769123992800316E-03
              -1.8488700032423815E-03
              -1.8464454834189767E-03
               5.0184365039600103E-04
              -1.5088932201008411E-03
              -1.1866749611816488E-03
              -2.7346093184244286E-03
               5.9037569994095269E-03
               8.1762508250426743E-03
              -1.5963786566296494E-03
               3.5027214950364939E-03
               5.2621476538558445E-03
               2.9451918778494357E-03
              -3.1393192558075334E-03
              -7.7580502629411028E-03
               1.1185999756766769E-03
              -1.5730665252427268E-03
               2.1196380523792616E-04
               1.4830793758538457E-03
               7.6310632662644523E-04
               1.7488026275302747E-03
               3.1369685394445668E-04
               4.7308100000689841E-03
              -2.9196255022323724E-03
              -1.1065793811284509E-04
               7.9388776224265805E-04
              -2.1606535977395005E-03
               1.0300361346670948E-03
              -1.8451839416216466E-03
               7.3164218341835495E-03
               5.4866811725410450E-03
              -3.1063235409055905E-03
              -2.8992882032194251E-03
              -2.8477523448055490E-03
              -6.8599228159687187E-04
               5.1901229696396708E-03
              -1.4630240306232488E-03
               4.0967140658227782E-03
               5.0561699517956225E-03
               2.5279625631001285E-03
              -7.4093998775649466E-03
               1.7085710549756268E-03
              -9.0178202203641366E-04
               2.8784151617100942E-03
               9.7850923967000717E-04
               4.0724355288273952E-03
               6.2069237100167084E-04
              -1.4117850131435219E-03
               6.3864294640802949E-03
              -1.6043565332826994E-02
               1.6459381403040818E-02
              -4.6173499938601762E-03
              -5.2446683977314494E-03
              -4.9749454730164252E-03
               8.2125945950486099E-04
               3.6934352155799013E-03
              -1.8164591231912134E-03
               1.0638093023617522E-03
               3.4341509099742947E-03
              -4.7280829885470816E-03
              -4.4697954397400321E-03
               1.0009817398586465E-02
              -9.5763505728873044E-03
              -6.7571169172217244E-03
               2.8202126406557350E-03
               2.4061293589174447E-03
               3.2739673015636118E-03
              -1.0284603824324943E-02
               3.3872180024755549E-03
              -2.1563910004959892E-03
              -2.8842450969358314E-03
               3.4099168638565729E-03
               2.1431001656687849E-03
              -1.3425537548856566E-03
              -3.3671310640577177E-04
              -5.1342664725983261E-03
               9.1276535487209137E-03
              -4.0995388128916349E-03
               3.9944308823111757E-03
              -3.9372915483704297E-03
               1.5793986309688161E-03
               2.0893050313074996E-03
               3.8476678260507431E-04
              -1.6845879164740082E-03
              -3.4253696304154262E-03
               4.2109964160637987E-04
               6.3254881829040077E-03
               2.6544612139888218E-04
              -3.0997321314458460E-03
              -8.9247710302627122E-03
               8.3606285849378956E-04
               1.8020839262429421E-03
               2.1241528159169341E-04
               4.1391833524882958E-03
              -3.1595370319124254E-03
               5.9064393429400196E-03
               3.2168639740262979E-03
              -8.3690484317839511E-03
              -6.5157566774700325E-03
              -1.7208077167082528E-03
              -3.7454098959292378E-03
               2.4009511181852560E-03
              -1.5049769278143333E-03
              -5.1522817848827429E-03
              -2.7145453737618861E-03
               1.0128478194067434E-02
               3.6415768121911508E-03
               6.9472152286519434E-03
              -4.3258478297876130E-05
               2.5342672092562905E-03
              -9.9179156515380429E-04
              -5.6968763088948446E-03
               1.7344214113511514E-03
               3.1585614544670940E-03
              -2.6039454892037859E-03
               2.7313904701705329E-03
               1.9582017674101603E-03
              -2.5724574619872707E-03
               3.0098709249550513E-04
              -1.9414288112554945E-03
              -1.0942351553249751E-02
               5.2789881934500937E-03
               6.3934908043677822E-04
               9.8397692173761309E-03
               8.0817398655683289E-04
              -3.3146578964963220E-03
         &END THERMOSTAT_ENERGY
         &RNG_INIT
Wiener process for Thermostat # 1        1 F T T   3.1802742257825889E-01        2117445822.0        1784117129.0         893083395.0        1783466761.0        2882189077.0        2868249081.0             12345.0             12345.0             12345.0             12345.0             12345.0             12345.0             12345.0             12345.0             12345.0             12345.0             12345.0             12345.0
Wiener process for Thermostat # 2        1 F T T  -4.9187843838419820E-01        2379912731.0        2380235040.0        3724452929.0        2769321336.0        2129722131.0        3387212259.0        3692455944.0        1366884236.0        2968912127.0         335948734.0        4161675175.0         475798818.0        3692455944.0        1366884236.0        2968912127.0         335948734.0        4161675175.0         475798818.0
Wiener process for Thermostat # 3        1 F T T   6.4948767519944051E-01          33612170.0        3006684264.0         109043558.0         431664488.0        3891774789.0         520519407.0        1015873554.0        1310354410.0        2249465273.0         994084013.0        2912484720.0        3876682925.0        1015873554.0        1310354410.0        2249465273.0         994084013.0        2912484720.0        3876682925.0
Wiener process for Thermostat # 4        1 F T T   6.5495713249457066E-01        1322773627.0        2995010694.0         666955602.0        2954065329.0        4169120949.0        1026813917.0        2338701263.0        1119171942.0        2570676563.0         317077452.0        3194180850.0         618832124.0        2338701263.0        1119171942.0        2570676563.0         317077452.0        3194180850.0         618832124.0
Wiener process for Thermostat # 5        1 F T T  -1.6296518629128045E+00        3048643116.0        4076318567.0        3993806380.0        3972767538.0        2322199585.0        4152730064.0        1597262096.0        3906379055.0        3312112953.0        1016013135.0        4099474108.0         275305423.0        1597262096.0        3906379055.0        3312112953.0        1016013135.0        4099474108.0         275305423.0
Wiener process for Thermostat # 6        1 F T T  -2.3710733378222193E-01        1086340432.0        2038235796.0        4069556951.0        2609858004.0        1025697472.0        3599232891.0          97147054.0        3131372450.0         829345164.0        3691032523.0        3006063034.0        4259826321.0          97147054.0        3131372450.0         829345164.0        3691032523.0        3006063034.0        4259826321.0
Wiener process for Thermostat # 7        1 F T T  -1.8961991930458864E+00         209409846.0        3649994700.0        1850368427.0        2938398858.0        2241374859.0        3227190688.0         796079799.0        2105258207.0         955365076.0        2923159030.0        4116632677.0        3067683584.0         796079799.0        2105258207.0         955365076.0        2923159030.0        4116632677.0        3067683584.0
Wiener process for Thermostat # 8        1 F T T   1.4417068949246725E-01        1260099797.0        1928451225.0        3515270001.0        1578744161.0        3974765221.0        2231842947.0        3281794178.0        2616230133.0        1457051261.0        2762791137.0        2480527362.0        2282316169.0        3281794178.0        2616230133.0        1457051261.0        2762791137.0        2480527362.0        2282316169.0
Wiener process for Thermostat # 9        1 F T T  -9.2910693524630172E-01        1166003584.0        2600714055.0        3872174078.0        2880612728.0        1882007991.0         494403829.0        3777646647.0        1837464056.0        4204654757.0         664239048.0        4190510072.0        2959195122.0        3777646647.0        1837464056.0        4204654757.0         664239048.0        4190510072.0        2959195122.0
Wiener process for Thermostat # 10       1 F T T   1.3366952911596226E+00         761650024.0         680864561.0        2904345816.0         748682540.0        2447443637.0        2580309318.0        4215590817.0        3862461878.0        1087200967.0        1544910132.0         936383720.0        1611370123.0        4215590817.0        3862461878.0        1087200967.0        1544910132.0         936383720.0        1611370123.0
Wiener process for Thermostat # 11       1 F T T   7.8187386770189649E-01         552324830.0        2642641520.0        1783211911.0        3339339377.0        4033119469.0         168759756.0        1683636369.0         362165168.0         814316280.0         869382050.0         980203903.0        2062101717.0        1683636369.0         362165168.0         814316280.0         869382050.0         980203903.0        2062101717.0
Wiener process for Thermostat # 12       1 F T T   1.6765137594598394E+00        1972391982.0        3503770598.0          20751614.0        1202050388.0         772085881.0        1284068474.0         272317999.0         166758548.0         310112982.0         201045826.0        1680231254.0         118290799.0         272317999.0         166758548.0         310112982.0         201045826.0        1680231254.0         118290799.0
Wiener process for Thermostat # 13       1 F T T  -1.2693856048208782E-01        2340711414.0         217885740.0        1535240576.0        3632033282.0        3056362305.0         707028556.0        2245755202.0        1652682525.0        2865544364.0         721509566.0         209733568.0         592362218.0        2245755202.0        1652682525.0        2865544364.0         721509566.0         209733568.0         592362218.0