 # Version information for this restart file 
 # current date 2024-11-22 15:05:14.069
 # current working dir /scratch/work/courses/CHEM-GA-2671-2024fa/students/ra3194/comp-lab-class-2024/Week12-IntroAIMD/Runs/Proton
 # Program compiled at                              Sat Dec 12 18:27:15 EST 2020
 # Program compiled on                                         cs001.nyu.cluster
 # Program compiled for                                                nyu-intel
 # Source code revision number                                       git:8c64c6e
 &GLOBAL
   PRINT_LEVEL  LOW
   PROJECT_NAME proton_aimd_1ns_every0.5fs
   RUN_TYPE  MD
   WALLTIME 21600
 &END GLOBAL
 &MOTION
   &GEO_OPT
     OPTIMIZER  BFGS
     MAX_ITER  100
     MAX_DR     3.0000000000000001E-03
     &BFGS
     &END BFGS
   &END GEO_OPT
   &MD
     ENSEMBLE  NVT
     STEPS  1000
     TIMESTEP     4.9999999999999994E-01
     STEP_START_VAL  500
     TIME_START_VAL     2.4999999999999795E+02
     ECONS_START_VAL    -1.1027954174996337E+03
     TEMPERATURE     3.0000000000000000E+02
     &THERMOSTAT
       TYPE  GLE
       REGION  MASSIVE
       &GLE
         NDIM  5
         A_SCALE     1.0000000000000000E+00
         A_LIST     1.8595758612559999E+02    2.7263853498399998E-01    1.1526100454610001E+01   -3.6414578262600003E+01 \
             2.3173375816020001E+02
         A_LIST    -2.7809524712060002E-01    8.5951591808710006E-05    7.2189048017650004E-01   -1.9844539343859999E-01 \
             4.2409257583420001E-01
         A_LIST    -1.4825808131210000E+01   -7.2189048017650004E-01    1.3590902121280000E+00    5.1498896280349999E+00 \
            -9.9949268450990001E+00
         A_LIST    -1.0372189126880000E+01    1.9844539343859999E-01   -5.1498896280349999E+00    2.6661910891169999E+01 \
             1.1507715495310000E+01
         A_LIST     2.1801346360420001E+02   -4.2409257583420001E-01    9.9949268450990001E+00   -1.1507715495310000E+01 \
             3.0958394565589998E+02
         &THERMOSTAT_ENERGY
              -2.6218532967249861E-03
              -3.9901953278261406E-04
               8.3490712939302339E-04
               1.1799542087469965E-03
              -7.6698273589423972E-03
               1.1706322315584547E-03
              -1.6231569129971459E-03
              -3.0936962103445737E-03
               7.8615394825233657E-03
               2.7015124225124821E-03
               5.9438221526049708E-03
              -3.4151584575364095E-03
               2.8992027990076613E-03
              -1.9397919315753663E-03
              -5.0498311514402786E-04
              -3.4863546375109955E-03
               1.6509829698148396E-03
              -2.6775280046658322E-03
               4.6314907621755079E-03
              -4.4757980760056729E-04
               6.9813575065580955E-04
              -1.7118811194238080E-03
              -2.9036600680193191E-03
               3.2770475933985277E-03
               4.9184210755362024E-04
              -3.9372365647931942E-03
              -1.6908398270027833E-03
               6.3207498119489097E-03
               1.4180478794832111E-04
               2.1039935678381739E-04
              -4.5203618569981899E-03
               2.1636270380319881E-03
               7.5239218090138085E-03
               4.3151464416952624E-04
              -2.5126382478361685E-03
               4.6390900044026295E-03
              -1.1900956477920040E-03
               4.9294391989348151E-04
               6.8182490919154175E-04
              -5.4282183802262865E-03
               3.1763875991754451E-03
               4.0576880002550980E-04
               2.6959403555757138E-03
               1.1691900873447786E-03
              -7.3067051477705000E-03
               3.1495977148924400E-03
              -4.3844968053926062E-04
               2.2743070426375551E-03
              -7.3337777304031673E-03
               2.7719241757395421E-03
               7.7007473495645760E-04
              -5.6344315600886374E-03
               1.7028350795965409E-03
               2.3744859440151481E-03
              -4.9254919273705915E-03
               4.7354446939139394E-03
              -1.1575412986607227E-03
              -7.1010835601699126E-04
               1.4339497302045586E-03
               4.9485921618242579E-03
              -2.1844731652925320E-03
               1.4417399465107860E-03
               6.3305597982514479E-03
               1.0992249099299521E-03
               7.7161713818815856E-04
               1.5250992848139890E-03
              -1.7773306363361805E-03
               6.0072213729686413E-03
               5.7291796113387982E-03
              -3.4464006133820045E-03
               2.3593703234318594E-04
               8.6808216771534449E-04
              -3.2586198994791222E-03
               6.6973017015023104E-04
              -2.3374304040669012E-03
              -5.1135473627253788E-03
               7.5808582507939501E-03
               1.0080416913158007E-03
               9.7120678436047429E-03
              -3.1649010788941106E-04
              -5.8943241373193974E-03
              -2.6065516073722076E-03
               2.0475297049614817E-03
              -1.2762161623453411E-03
               2.9700462238786540E-03
               1.2895379564455140E-03
              -5.8674243316714078E-03
              -7.6499911765032583E-04
               1.2310658602667289E-03
              -3.2481475022939901E-03
               5.4342029690335096E-03
              -3.7883969766229430E-03
              -5.2969395093314530E-04
               2.5316468173916390E-03
              -6.6305190615365429E-03
               1.0304006370083626E-02
               4.2535598874453087E-03
               8.4236407284371442E-04
               3.0264304865980814E-03
               5.8615980135192283E-03
               2.9212286035734252E-04
              -2.6425808886763820E-04
              -4.0784587098497364E-03
               3.5093742127179383E-03
               5.1500072052754562E-03
               6.7672405867969833E-03
               2.8269606171070021E-03
              -2.2382996715055712E-03
               4.1159770036133681E-03
              -4.5086969890547040E-04
               2.2462541568997042E-03
              -1.5946635075649866E-03
               2.5972857229184469E-03
               2.1903064508397088E-03
               1.8717307812408661E-03
               4.5542541546718133E-03
              -7.2832328280670443E-03
               3.0203366060773456E-03
              -3.6136211883558284E-03
               4.8144841726011176E-04
              -2.1280469800190180E-03
               4.2814653354362750E-03
               5.0276719441447225E-03
               7.0974317565003853E-03
              -4.7463658873167329E-03
              -1.4501856869290120E-03
              -9.1568836637490221E-04
               4.8521911581892829E-04
               3.3669783536473671E-03
               2.5701547175851326E-03
              -7.4396740921704911E-03
               5.6756181388079412E-03
               2.3907178205293087E-03
              -8.5659286062850313E-03
              -4.4053237424585294E-04
               1.9840565969364062E-03
              -3.1821164563314176E-03
               2.5696811244727566E-04
              -6.1382062766450235E-04
              -5.8613395410305096E-03
               6.6624865590856610E-03
               4.9586085450101253E-03
               1.3335818851327257E-03
               1.4126938994105471E-03
              -1.3991071054221375E-03
              -1.1009486246756819E-03
               6.3379469095006932E-03
              -1.0912975851495193E-03
              -3.0173599811485498E-03
               3.8834268377614589E-03
              -7.2044825916596725E-03
               2.5345335793465350E-03
              -2.2731388775144279E-03
               5.1382161873355354E-05
               2.1086757686611683E-04
              -2.4100589889822972E-03
               1.1412236414910630E-03
              -3.8634402605322044E-03
              -2.4235222436966774E-03
               2.3560736862032238E-03
              -4.3449503865490187E-03
              -1.0176930877240481E-04
              -3.3634304666446723E-04
              -2.3271173157975084E-03
               3.2358151260398768E-03
               9.2377519787646880E-03
               1.7551200670870748E-03
              -8.3511990383431343E-03
              -4.8177088664446031E-03
               3.2036569446815366E-03
               4.8921115903732782E-04
               1.8813534878217091E-03
               1.9495121876155336E-03
              -1.9762143836137848E-03
              -2.0818000585238281E-03
               3.6434633484406626E-03
              -2.5141239381115529E-03
              -3.6228653267140758E-03
               5.1091624830060115E-03
               3.1306219615048806E-03
               2.7318526081195147E-04
               2.2172413464549598E-03
               1.3855769010757727E-03
              -8.8001515297738055E-03
               2.5703499086651305E-03
              -6.2750339768592256E-06
              -3.4947926042869630E-03
               5.4422513508306869E-03
               7.0260331313807579E-04
               2.5580191879366653E-04
               2.4092914709008236E-03
              -1.7637209833865845E-03
               3.8427636739837043E-03
              -1.7756672303821980E-03
               7.5220645621572389E-04
              -4.0733222852069022E-03
               6.3502040361290680E-04
               2.2648792337465456E-03
               2.3695054232694649E-04
               2.3093276226159379E-04
              -6.1681727509224388E-04
              -3.9105515315771477E-04
               3.6098267113177868E-03
               7.5187265839726965E-05
              -2.7293630894154163E-03
               4.2853478270620405E-04
              -5.4325944630999965E-03
              -4.3185030778453994E-04
              -9.2991065766561282E-05
               3.9059037766047667E-03
              -9.4528689090438134E-04
               3.0423495977801495E-04
               5.0025461603051746E-03
              -2.9568284928914953E-03
               6.5818590784174095E-03
              -8.5263136358634025E-04
              -3.4153823415543354E-03
               1.8345185855332834E-03
               2.2259000306283243E-05
              -2.8363382797489834E-03
               2.2690153497187922E-03
              -4.7917739509055531E-03
               2.3189522825612071E-03
              -7.0940766307256149E-04
              -1.6791095538419122E-03
              -9.4882262802923278E-04
               8.8940177793448317E-04
               3.5224495461023526E-03
              -6.5331820622423209E-03
               7.8474050585561218E-03
              -8.4627108495787633E-03
               8.4844560371081048E-04
               6.2068276704237589E-03
              -5.9631780049725792E-03
              -6.5988407144171627E-05
              -9.3616169764960695E-04
               1.8254204383233655E-04
               1.7418991888339458E-03
              -1.6920811494388543E-03
              -5.5557182396970902E-04
               5.7997396872669143E-03
              -2.9808986028684774E-03
               3.7851869287819904E-03
               3.3130133749323426E-03
               1.0849414142932107E-03
               6.4492282174091384E-04
              -2.3641119303973871E-03
              -1.3246246919491227E-03
               1.6013732355383858E-03
              -4.4356239219420562E-03
               3.9171081864541680E-03
              -1.1660475316152361E-03
              -4.9742358369606748E-03
               7.2717509919742224E-04
              -1.3209377247533360E-03
              -6.5651333923459777E-03
               7.4949100086007395E-03
              -1.5232964870461312E-04
               1.3604695635851720E-03
              -6.9840841757362812E-03
               6.4113890107947409E-03
               4.0553100792836052E-03
              -2.7815933678802520E-03
              -2.7694195733595863E-03
               1.1747682706354399E-03
              -1.4784963545570840E-04
               6.7714770194801308E-04
               7.2199936681219216E-03
              -4.0357396592081794E-03
               4.1805170911192362E-03
               2.3274337969357947E-02
               7.5601582391457518E-03
               1.3284111678731426E-02
               2.9802152176977770E-04
              -2.3098658490435043E-03
              -2.1684886991949004E-03
              -1.8617157443837700E-03
               5.6352870640443108E-03
              -4.3940062518148205E-04
               2.1807928113291371E-03
              -2.5375384602207055E-03
              -5.2696810841365562E-03
               1.4347469618557600E-03
               3.0752849084194258E-03
              -3.0139278565540226E-03
               1.5930131133648729E-03
               2.6796790073072498E-03
              -4.0440126090493427E-03
              -2.5003658787703586E-03
               5.4094901100863605E-03
              -2.0910998805621023E-03
               1.7180411543497489E-03
              -8.4932530365882872E-04
               2.3650896553625189E-03
               1.0005206614619726E-03
               7.4669497887517857E-03
              -9.1953496918589141E-03
               3.7250258855516727E-03
              -6.2660600537057750E-04
              -3.4038463959029479E-03
              -1.6956384875867008E-03
               2.0559130835673132E-03
               1.0287249796660900E-03
               6.3433943306946405E-03
              -2.6492968689470534E-03
              -2.7923170257276369E-03
              -6.1596791544855107E-03
               2.6539803080440618E-03
              -8.4279863700498453E-04
               2.6013048347633613E-04
              -1.5903795555220306E-03
              -2.3854132498077668E-03
               2.2804157499665750E-03
               1.7067900974510582E-03
               2.8473631356600330E-04
              -3.1623295199313607E-03
              -1.8004274919440416E-03
               4.2805112563465107E-03
              -2.8263960042264314E-03
               1.3595381072542053E-03
               3.0232589968791136E-03
              -5.7731427446321604E-04
               2.5300633102526954E-04
              -3.1969488075541124E-03
               6.7563305066984367E-04
               5.0746586668627162E-03
               4.0206734684224517E-03
              -3.6107303287469565E-04
               6.8492920409964097E-04
              -1.7077432816783077E-03
              -1.9938345625990805E-03
               7.4591300622098983E-04
               3.4105879744956327E-03
               5.6385191506696866E-03
              -3.1905760957959693E-03
              -5.2773730483214284E-04
               2.1917795351681897E-03
              -6.9939390865733186E-04
               1.7514806174321299E-03
               5.3708370897445493E-03
              -2.8816638938938821E-03
               1.5937647234594069E-03
               1.9036324721128221E-03
              -1.0556803011447183E-03
              -1.7370754276171798E-03
               6.5611769580152025E-04
               1.0034996425925683E-03
              -7.6244275816376853E-04
               1.9287683976072906E-03
              -4.9254218691177059E-03
               9.5489559873703563E-04
               4.0479143497424500E-03
              -2.6084433062097657E-03
               4.3806089965034468E-03
               1.1914899649703662E-03
               2.3872547983094165E-03
              -7.1986207688675579E-04
               2.9590360873987713E-03
              -2.1262815119921677E-03
              -2.6269664257510109E-03
               1.9541878774799329E-03
              -2.8766915803576073E-03
               7.0720600605377187E-03
              -4.7742867313154086E-04
              -3.2173782145252373E-03
               3.3577311123040837E-03
               7.8350928722041597E-03
               4.3888024869630305E-03
              -9.8382740023066177E-03
              -5.1258335624790254E-04
              -3.1169544762144237E-04
              -2.3113442373636239E-03
               5.7874650755450861E-04
              -2.6888756399926724E-03
              -2.3877199403833818E-03
               4.3710109978089351E-03
              -3.0527864627322241E-03
              -8.1039225100546387E-03
              -1.1546225311672775E-04
               2.0629180680123019E-03
               3.5059709515061110E-04
              -7.0229798625727350E-04
              -1.2775797400477254E-03
              -1.2096556921853841E-03
              -4.1549114384092914E-03
              -2.0628790726451075E-03
               5.4450942226791496E-03
              -8.9534397961577483E-04
               3.6333343143473747E-03
               4.9589027061216822E-03
              -8.5809201820137104E-05
               3.3165390735490118E-03
              -4.6773830670967294E-06
              -5.7771866679660645E-03
               1.1250855555025392E-03
               4.8655120146324704E-03
               3.6342342258469150E-03
              -1.9307791710052681E-04
               1.4086952245183273E-05
              -2.4607924996593333E-03
              -2.1115268255853846E-03
               2.3984947052564359E-03
               5.3086503340370834E-03
               2.5665442173316423E-03
              -4.4039706711790421E-03
              -2.1201586186946971E-03
               4.6216682417776541E-03
              -7.6437574500254901E-03
               2.9607062961907135E-04
               2.0606249848352559E-03
               1.5051258678949989E-03
              -1.5767085686428412E-03
               2.2239648180661180E-03
              -3.8813218888178415E-03
              -3.4397868802159047E-03
               2.3633671042652704E-03
              -5.6231636154791525E-03
              -1.4744344281907317E-03
               1.9542128461142254E-03
               1.2341061670446925E-03
               5.0440587088088160E-03
              -1.2646674682920377E-03
               1.3186651881562212E-03
              -1.4690467337196277E-03
              -2.4105949502284925E-03
               2.2245607827952778E-03
               2.4921012396903514E-03
              -4.9036054875850532E-03
              -2.9393815847502622E-04
               7.1097125536988609E-03
               1.5974881728942210E-04
              -2.6890095236251610E-03
              -1.5364552228710724E-03
               1.9192654463329175E-03
               2.1707906860795965E-03
               3.5920576958711837E-03
              -2.9290986535895631E-04
              -1.2856133590136002E-03
              -6.3865517388019151E-04
              -4.1456399411594159E-04
               9.4780655019678865E-03
              -2.8852865650665594E-03
              -1.8996092798122329E-03
               1.8876814724806132E-03
               1.8633940301776230E-03
               7.5095386021929835E-03
               5.9064425202766330E-03
              -1.5218202193222434E-03
              -4.2894564241529745E-03
              -2.3284398938388053E-04
              -4.7916653117713353E-04
              -8.9555299244320295E-03
               4.4121545569751584E-03
              -8.4629520657139535E-04
              -2.2126671929967095E-05
              -4.9636753435688041E-04
               4.0624422971288886E-03
              -1.5767424503096501E-03
              -1.2805678339139577E-03
               1.6550884792865279E-03
               8.3844617979596768E-05
               1.9341972762708965E-03
              -3.1382184095829994E-03
               6.6034604162716571E-05
               3.7135589489192440E-03
               1.0636215091997599E-03
              -1.4775322444210628E-03
              -3.8705060394075169E-03
               5.2578358722552379E-04
               9.2634663812023220E-04
              -3.9532781172246312E-03
              -7.2184918331116767E-04
               2.2053925567759882E-03
               5.1233094332616053E-04
              -5.7868165752784158E-04
               6.2293124030742691E-03
              -1.2509079797468044E-03
               3.4553300773379481E-04
              -4.3682242138234342E-03
               1.3548825427593487E-03
              -9.7758717314287355E-04
               1.5169567938777458E-05
               5.7072290819039093E-03
               1.7422971110077673E-03
              -6.5031108471088543E-04
               1.8610477045732030E-03
              -3.5114485398922172E-03
              -3.9373404397619700E-03
               2.3286229954185191E-03
              -2.2002282357736386E-04
              -1.1461134716617058E-03
               2.3156640723120325E-03
               6.3150803349680388E-05
              -4.5843685765985069E-03
               2.2034214251672912E-03
              -5.6169782478013765E-03
               7.3267345790436512E-03
               4.9937076231522416E-03
               5.0809342142349966E-03
               2.8006119662040588E-03
              -2.1375823213167686E-03
              -4.7952180582970971E-04
              -1.1710605223320798E-02
               4.1473918645330565E-03
              -3.3145979933218465E-03
              -5.3310881004513489E-03
               5.9239602696367917E-05
              -1.9428173796475000E-03
               2.9325371968697711E-04
               1.2251290242746714E-03
               4.1125532492820921E-03
               2.9412655317892912E-04
              -2.7404191109135509E-03
              -4.7849825462900827E-03
               2.1112906126352772E-03
               1.3597390674092713E-03
              -6.4403959838961935E-03
               3.9527173396535845E-03
               5.3425937265876491E-03
              -3.9266718401073054E-03
              -1.4256277861330468E-04
              -2.2874292288366065E-03
              -4.4460169899761281E-04
              -4.0878473679630458E-03
               9.1219453075305702E-04
               8.3416969611114123E-04
               6.6074042041142545E-04
              -2.7815291215113082E-04
               2.6991480812038528E-03
               9.6945422004083102E-03
              -5.8867348693025538E-03
              -2.2362453055369607E-03
               1.3128663233177413E-03
              -1.6095923241259196E-03
               2.0074449480450549E-03
               1.5068804240127049E-04
              -2.2770504888926821E-04
               1.2048763200544425E-03
               3.1865811403067198E-03
              -2.3010437872873887E-04
              -7.8512602298943179E-06
              -9.0206990342505137E-04
              -3.6592547252025025E-03
               1.5851333862882554E-03
               2.1589582853934579E-03
              -2.2392128701905531E-04
              -1.9443695407915258E-03
               4.0485249092247055E-03
               2.4546032695802853E-03
               3.0933474007515910E-03
              -5.9756799895157552E-03
              -3.6858095380623681E-03
              -7.3029186377116971E-04
              -7.3729963979629143E-04
               3.5456285833256626E-04
              -6.3367072136895032E-03
              -1.5362084423928030E-04
               1.2457169027614643E-04
               7.6722686451929341E-03
               1.1895067243066595E-03
               5.2403190891021365E-03
              -9.0079719207209125E-04
              -4.9331059525110422E-04
               1.3001055946169279E-03
               4.4967480109267549E-04
               6.9709369920153228E-03
              -7.2456983557638143E-03
              -6.1584204597960679E-03
               5.1989379674740373E-03
              -5.4814927139580343E-03
               1.6381788524120814E-03
              -3.7546401189969630E-03
              -4.1156539228519931E-03
              -6.3002406308985230E-03
               2.1205115355955491E-03
              -1.1173803329925015E-03
               3.8957092588411176E-03
               7.9512417941033694E-03
              -2.7577308501139405E-03
         &END THERMOSTAT_ENERGY
         &RNG_INIT
Wiener process for Thermostat # 1        1 F T T  -1.5505429657892764E+00         661802595.0        2026459976.0        3136775027.0        3268219721.0        1056216878.0        3744216088.0             12345.0             12345.0             12345.0             12345.0             12345.0             12345.0             12345.0             12345.0             12345.0             12345.0             12345.0             12345.0
Wiener process for Thermostat # 2        1 F T T   1.5766939834860993E-01        2521559082.0        1979391111.0        3972826820.0        2839528192.0        3960449033.0        3051881342.0        3692455944.0        1366884236.0        2968912127.0         335948734.0        4161675175.0         475798818.0        3692455944.0        1366884236.0        2968912127.0         335948734.0        4161675175.0         475798818.0
Wiener process for Thermostat # 3        1 F T T  -1.6802103653762466E+00        2464096834.0        3454226368.0         668358963.0        3607867155.0        2139338144.0        1695442074.0        1015873554.0        1310354410.0        2249465273.0         994084013.0        2912484720.0        3876682925.0        1015873554.0        1310354410.0        2249465273.0         994084013.0        2912484720.0        3876682925.0
Wiener process for Thermostat # 4        1 F T T  -9.2120442907176847E-01        3007810664.0         626544053.0           5688727.0        2019501767.0        4050809287.0        2188826537.0        2338701263.0        1119171942.0        2570676563.0         317077452.0        3194180850.0         618832124.0        2338701263.0        1119171942.0        2570676563.0         317077452.0        3194180850.0         618832124.0
Wiener process for Thermostat # 5        1 F T T   1.9586792436148486E+00        3119398129.0        2238966874.0        1731687009.0        1729823850.0        3912388439.0         182524877.0        1597262096.0        3906379055.0        3312112953.0        1016013135.0        4099474108.0         275305423.0        1597262096.0        3906379055.0        3312112953.0        1016013135.0        4099474108.0         275305423.0
Wiener process for Thermostat # 6        1 F T T  -2.2012851380256623E-01         527820745.0        2447393615.0         338698828.0         653439858.0         976211817.0        3944196308.0          97147054.0        3131372450.0         829345164.0        3691032523.0        3006063034.0        4259826321.0          97147054.0        3131372450.0         829345164.0        3691032523.0        3006063034.0        4259826321.0
Wiener process for Thermostat # 7        1 F T T  -1.2191095662093037E-02         167278661.0        2992638024.0        1197931920.0         124710794.0         889033703.0        2194094787.0         796079799.0        2105258207.0         955365076.0        2923159030.0        4116632677.0        3067683584.0         796079799.0        2105258207.0         955365076.0        2923159030.0        4116632677.0        3067683584.0
Wiener process for Thermostat # 8        1 F T T  -2.6373530393371375E-01        2923147749.0        3809475671.0         892364519.0        3114385888.0        3523415917.0        3402922821.0        3281794178.0        2616230133.0        1457051261.0        2762791137.0        2480527362.0        2282316169.0        3281794178.0        2616230133.0        1457051261.0        2762791137.0        2480527362.0        2282316169.0
Wiener process for Thermostat # 9        1 F T T  -1.2388913960989989E+00         276694386.0        3384434371.0        2194062143.0        3864498526.0        2498625561.0        4174179731.0        3777646647.0        1837464056.0        4204654757.0         664239048.0        4190510072.0        2959195122.0        3777646647.0        1837464056.0        4204654757.0         664239048.0        4190510072.0        2959195122.0
Wiener process for Thermostat # 10       1 F T T  -6.9271884074884071E-01         298842605.0        4183294382.0        3769908432.0        1623977651.0        3452521187.0         349927101.0        4215590817.0        3862461878.0        1087200967.0        1544910132.0         936383720.0        1611370123.0        4215590817.0        3862461878.0        1087200967.0        1544910132.0         936383720.0        1611370123.0
Wiener process for Thermostat # 11       1 F T T  -3.9199517781213300E-01        1183014876.0        2469777470.0        2706060047.0        1374668043.0         490283634.0         131761905.0        1683636369.0         362165168.0         814316280.0         869382050.0         980203903.0        2062101717.0        1683636369.0         362165168.0         814316280.0         869382050.0         980203903.0        2062101717.0
Wiener process for Thermostat # 12       1 F T T   1.2248374085476998E+00         744312290.0        1838623065.0        1895433531.0        2930723882.0        3034111406.0        1223209339.0         272317999.0         166758548.0         310112982.0         201045826.0        1680231254.0         118290799.0         272317999.0         166758548.0         310112982.0         201045826.0        1680231254.0         118290799.0
Wiener process for Thermostat # 13       1 F T T   1.6053528300026945E-02         341235087.0         365462780.0         607175623.0        3292057964.0        1611524565.0         256574977.0        2245755202.0        1652682525.0        2865544364.0         721509566.0         209733568.0         592362218.0        2245755202.0        1652682525.0        2865544364.0         721509566.0         209733568.0         592362218.0