 # Version information for this restart file 
 # current date 2024-11-22 16:15:37.972
 # current working dir /scratch/work/courses/CHEM-GA-2671-2024fa/students/ra3194/comp-lab-class-2024/Week12-IntroAIMD/Runs/Proton
 # Program compiled at                              Sat Dec 12 18:27:15 EST 2020
 # Program compiled on                                         cs001.nyu.cluster
 # Program compiled for                                                nyu-intel
 # Source code revision number                                       git:8c64c6e
 &GLOBAL
   PRINT_LEVEL  LOW
   PROJECT_NAME proton_aimd_1ns_every0.5fs
   RUN_TYPE  MD
   WALLTIME 21600
 &END GLOBAL
 &MOTION
   &GEO_OPT
     OPTIMIZER  BFGS
     MAX_ITER  100
     MAX_DR     3.0000000000000001E-03
     &BFGS
     &END BFGS
   &END GEO_OPT
   &MD
     ENSEMBLE  NVT
     STEPS  1000
     TIMESTEP     4.9999999999999994E-01
     STEP_START_VAL  1000
     TIME_START_VAL     4.9999999999999636E+02
     ECONS_START_VAL    -1.1027954174996337E+03
     TEMPERATURE     3.0000000000000000E+02
     &THERMOSTAT
       TYPE  GLE
       REGION  MASSIVE
       &GLE
         NDIM  5
         A_SCALE     1.0000000000000000E+00
         A_LIST     1.8595758612559999E+02    2.7263853498399998E-01    1.1526100454610001E+01   -3.6414578262600003E+01 \
             2.3173375816020001E+02
         A_LIST    -2.7809524712060002E-01    8.5951591808710006E-05    7.2189048017650004E-01   -1.9844539343859999E-01 \
             4.2409257583420001E-01
         A_LIST    -1.4825808131210000E+01   -7.2189048017650004E-01    1.3590902121280000E+00    5.1498896280349999E+00 \
            -9.9949268450990001E+00
         A_LIST    -1.0372189126880000E+01    1.9844539343859999E-01   -5.1498896280349999E+00    2.6661910891169999E+01 \
             1.1507715495310000E+01
         A_LIST     2.1801346360420001E+02   -4.2409257583420001E-01    9.9949268450990001E+00   -1.1507715495310000E+01 \
             3.0958394565589998E+02
         &THERMOSTAT_ENERGY
               2.2473347482320633E-03
               5.2857271077307955E-04
              -2.1240697756840432E-03
               7.8935756738434358E-03
              -1.0989871858679558E-02
              -5.7904969599807390E-03
               4.7088339716906437E-03
              -1.2480683603498361E-03
               3.6039551583950911E-03
               4.4734618121736805E-03
               7.6109320938946958E-03
              -4.0984623430042593E-03
              -5.9539417473060997E-03
              -4.8878829859040499E-03
               5.2986539070793365E-03
              -7.8371322014162310E-03
               6.7492379741864728E-03
              -3.0210557458639630E-03
               5.3685148327733603E-03
               3.6965839553925036E-04
               1.2798870164563022E-03
               1.2986416529308050E-03
              -8.7250655939732271E-03
               7.1619058072950258E-04
               5.1815209401901048E-04
              -5.9348458445369536E-03
               1.5918489875419673E-03
               7.2578702468662987E-03
               2.9599685826140233E-03
               2.5367200206203675E-03
              -5.6066362647632937E-03
               1.4935073088278236E-03
               8.5190118276902999E-03
               2.0597008529950468E-03
              -1.3460825656794947E-02
               1.3986032074698279E-02
              -3.4553872081774101E-03
               1.2333830615292381E-03
               4.5895092258399538E-04
              -8.8891759418985548E-03
               6.3065047949414244E-03
               5.2412160447752793E-04
               5.5452436927182474E-03
               2.3186119198983697E-03
              -2.7245905003563586E-03
               1.2285631252698813E-03
              -2.9522276555868318E-03
               2.8398122133896971E-03
               7.8305396121667041E-04
              -1.2322434004353030E-03
               3.4865514543016892E-03
              -5.3658789024721492E-03
              -4.7099915119459381E-03
               3.6887022159347110E-03
              -4.7444279503412482E-03
               3.4658827490648518E-03
              -3.6419542650872128E-03
               3.8694906115545385E-03
               4.2273730587131614E-04
               5.7835320804872636E-03
              -4.6790165409319653E-03
               2.7339918188606163E-03
               1.2478320454128335E-02
              -4.1655352322171662E-03
               1.0938452777402684E-04
               1.9378957235086738E-03
              -4.7881343128302126E-03
               6.6754060807651776E-03
               6.8489299504925077E-03
               1.0018772834066839E-03
              -1.6002685307723377E-03
               2.3084506781946524E-03
              -5.1179944815596201E-03
               1.3227870560268726E-03
              -5.2723298136625471E-03
              -8.9350993048123543E-03
               6.7958478175164485E-03
               7.0355379754823309E-03
               1.0325565758498703E-02
              -3.1854536174955807E-03
              -2.9306176616776592E-03
              -1.6367121886474527E-03
               2.1400301932905175E-03
              -1.0476324068163062E-04
               2.2803780785764943E-03
               5.5804278152578844E-03
              -1.8539974695154220E-03
               8.3441375062247834E-04
               5.2734997426024137E-03
              -4.6152480441595230E-03
               4.2513837451155691E-03
              -2.7313882817058860E-03
               2.1919360948000136E-03
               2.4973501796633317E-03
              -1.2734857067196787E-02
               1.0865417249673237E-02
               4.3844985169062120E-03
               2.9620040482675083E-03
               3.9970599902059327E-03
               4.9812640154954339E-03
               2.9916045894169191E-03
              -8.7112591352942349E-04
              -5.7592657273606062E-03
               1.6151123469620064E-03
               3.1572081304856712E-03
               1.4294977445355626E-02
               1.2133440518285942E-03
              -2.0276236208858866E-03
               6.1357618213924376E-03
              -2.3737508726164327E-03
               3.1531349269130660E-04
              -8.7102467014049754E-03
               5.5714268229249816E-03
               8.7541785476276963E-03
               1.9205557178961895E-03
               5.6445067663990047E-03
              -1.0262227823276826E-02
               4.4208362199832573E-03
               1.6603793833806632E-03
              -1.3873261834977946E-03
               2.4642530046511757E-03
               2.0315692466497315E-03
               2.7094519338789359E-03
               6.4239287310449917E-03
              -3.8501028058022034E-03
              -7.7169692746361478E-03
               5.9649474191005806E-03
              -7.9860242152300447E-04
               5.2943552428424655E-03
              -4.2446832517039432E-03
              -8.5741921537749160E-03
               6.4546528582347428E-03
               6.8440329698932567E-03
              -3.4427337387113242E-03
              -6.0107829671727543E-04
               4.7944395199386106E-03
              -1.6958901048720344E-04
              -4.5184380170222764E-03
               1.1876643622677910E-03
              -9.8992161272310492E-03
               2.8535749539681989E-03
               2.3152432513579139E-03
               8.2841791841070378E-03
              -4.1987297091276155E-04
              -7.0325035090372558E-03
              -2.8443787288793460E-03
               1.0517337233421076E-02
              -7.0339430540594912E-03
              -2.5237519035726770E-03
               1.2619627539922700E-03
              -4.1059102064309278E-03
               8.1362334137513211E-03
              -2.9041122295461875E-03
              -1.7805195645750774E-03
              -7.4713900386451371E-04
               1.3514549266711784E-03
               9.7674026968265644E-04
              -4.1366108288408421E-03
              -8.3430084956975553E-04
               1.9933850327967214E-03
              -7.6667148448779756E-04
              -2.0332294902948712E-03
              -1.2558987069724442E-03
              -1.4348927751043198E-03
               4.5456379053211591E-03
               9.9225236071197806E-03
               8.6932757069287693E-03
              -1.0995014278817673E-02
              -6.8508170903397430E-03
               2.6735323024519361E-03
              -2.8057912843613936E-03
              -4.2627290222255052E-04
              -1.0248185069075982E-03
              -1.9114239425165562E-04
              -9.9490797429772253E-04
               9.4397679364692996E-03
              -1.3897287418215203E-02
              -3.4595144722961374E-03
              -6.1492372821596026E-04
               5.9949240452466263E-03
               2.8771395034773448E-03
              -2.2282849657357623E-03
               1.0654169980310001E-03
              -9.5628881056279199E-03
               5.0798822630955176E-03
              -5.3202253789732580E-04
              -9.6128687587175524E-03
               5.6184360710141330E-03
              -2.9035048964650150E-03
               1.4049589661131799E-03
               2.7589796517363398E-03
              -2.2051253993776434E-03
              -2.6949980730797654E-03
               5.1517430220045946E-03
               6.9622043898793220E-03
               2.4571176351590796E-04
              -4.5695512157198949E-03
               8.5738332609300218E-03
              -1.9898843049824442E-03
               1.2480120087784824E-03
              -1.0532529161315864E-03
              -7.8328476935656775E-03
               1.0338595920917102E-02
               2.2224812769883733E-03
              -6.0948090714581119E-04
               3.5853208548461005E-03
              -6.7864629251308053E-03
               2.8696793188786370E-03
               3.9988657541579513E-03
               2.4698940139017927E-03
              -1.3931278830224582E-03
              -2.9678097968365738E-03
               1.4642335222278130E-03
              -6.3055630665801573E-03
               1.8893761547864806E-03
               3.1116582706036317E-03
              -3.0309672061976374E-03
               5.6149135414981606E-03
              -1.6149190078485326E-03
              -4.2864386189770867E-03
               9.1953222632174989E-05
              -7.0920891628183666E-03
              -9.4698252013599284E-04
               1.5818692812254236E-04
               2.1147360589759069E-03
               1.4525871731388986E-03
               4.6801713665772034E-04
               4.0369474930370304E-03
              -3.4724600044423368E-04
               8.4980419199592644E-04
              -5.6516716170307265E-03
              -5.5366025436140529E-03
               8.3351755210933250E-03
              -7.9827807148081867E-03
               4.5036864329477200E-03
              -1.6515801934351472E-03
              -1.9463658326096716E-03
               1.1052094600285479E-04
              -2.1319317796950924E-03
              -8.0496119957673858E-04
               7.6287912156418180E-03
              -9.1848403578669094E-03
               6.4299867750262441E-03
               2.6546158873729849E-03
               2.3368118694387925E-03
              -3.4543588671873755E-04
              -6.4529193470902789E-03
              -3.0600433053210151E-03
               2.8744632166202728E-03
              -3.8401346289773245E-03
               4.6166051954271980E-03
              -2.3579949755665867E-03
              -9.3819972424744949E-03
              -3.0080628443376724E-03
               4.1635835000694511E-04
              -4.7444336770954675E-03
               1.6138227110724025E-02
              -7.5087035832175908E-03
               3.3640927225024658E-03
              -1.5188193393418007E-02
               9.7729301317729736E-03
               1.7428790034391991E-03
              -3.1361741600779243E-03
              -1.5981871229084114E-03
               4.1165930895002015E-03
               9.9730314005972136E-04
               1.6069551844817248E-03
               6.3574555664443772E-03
              -3.4943666946904359E-03
               7.6628945950700106E-03
               3.0586778832133024E-02
               1.9242746184104029E-03
               1.5411239863124948E-02
               5.0070620411308778E-03
              -8.3062374642364767E-04
               4.6923175960778967E-04
              -6.4935578270637929E-03
               7.7678483328898693E-03
              -2.7870386359847839E-03
               3.2773308869088018E-03
               2.2752516119373825E-03
              -8.3963761571202149E-03
               3.9961154991304433E-03
               1.2180342714846160E-03
               3.3393635707071739E-03
               4.3826677288112828E-03
              -1.0162617986986056E-03
               4.3146914981598760E-03
              -1.0621866816822543E-02
               1.1141769465044917E-02
               3.0963749662867056E-04
               2.5156519108344481E-03
              -2.7239172782080880E-04
               3.4987029522683274E-03
               3.7480091864369050E-03
               1.1064689694398281E-03
              -8.3127628372698190E-03
               5.4591157391510482E-03
               4.6450428589213284E-03
              -7.9204502297035174E-03
              -3.6126437180958480E-03
               5.1777597024718200E-03
               2.9770733792937008E-03
               1.2899844317984646E-02
              -4.4903083698858625E-03
              -3.8903899541666408E-03
              -4.9636737777183576E-03
              -4.4361437846414768E-03
               1.2695339037038446E-03
               7.2420332922395747E-03
              -2.8808610133512868E-03
              -3.0230669151019955E-03
              -2.6859788468037646E-03
               7.2463927082460809E-06
               4.7876300951996836E-04
              -5.3714699346016489E-03
              -1.0155560912593861E-02
               1.4806877942554494E-03
              -5.9814375344634492E-03
              -4.2296044334709845E-03
               3.6048560086169054E-03
               9.3904453048886615E-05
               2.8692277056242806E-03
              -4.1132078749287143E-03
               2.4649226663266384E-03
               6.2907840808644894E-03
               3.4980508538520628E-03
               1.1876947355238241E-03
               2.5666403009312411E-03
               5.3286469268110852E-05
              -2.4227009136944229E-03
               1.2602555567285839E-03
               4.9352494766380720E-03
               2.8289299829090098E-04
              -3.1614246218479207E-03
              -9.5599680898515119E-04
               2.8106402909712858E-03
              -1.8934907211480315E-03
               2.4560449400084067E-03
               6.2435620873901908E-03
              -7.5830227255117080E-03
               1.8153201176420333E-03
               1.0379558060033676E-02
              -2.1400601272018160E-03
               4.3883090344947427E-04
               2.0254467580370378E-03
               2.2385350711944456E-03
              -5.2362795363212374E-03
               4.4519023346423492E-03
              -1.6133650055197046E-03
              -3.6658562199161386E-03
              -7.4954041660465890E-04
              -2.1197253793345497E-03
               1.1643472017187875E-03
               2.5612954491532184E-03
              -3.0602776263679498E-03
              -1.4451525224384947E-03
               1.7675274972265478E-03
              -5.5861406288616518E-03
               3.1755078420615864E-03
              -3.4234663860270081E-03
               5.8624253356331368E-03
               4.9110774539000241E-03
              -4.1417383733882907E-04
              -1.2759780918128961E-03
               2.7204667843818628E-03
               9.1878882783504780E-03
               7.8006003930919093E-03
              -1.6884254162539313E-02
               9.6219547206066085E-04
              -3.7014504484262248E-03
               3.8204413486998775E-03
              -1.3110692668782263E-03
              -1.4532407526726212E-03
              -6.9037403514561569E-04
              -7.1737950782204025E-04
              -7.8076610082036301E-03
              -7.9888873388906413E-03
              -6.2555406602780297E-03
               7.0857485184129525E-03
               3.3332674792214646E-03
              -1.4130429712735479E-03
              -3.6349437654782267E-03
              -2.0206562623404810E-03
              -8.2712733060290207E-03
              -9.7053273204231443E-04
               3.1728901875736877E-03
               3.5642280352826032E-03
              -3.6771137083733696E-03
               6.0506525321033285E-03
              -3.2195854090437113E-03
               3.9791843472877959E-03
              -7.9335124738404595E-04
              -6.5580191765255832E-03
               5.5138036154418063E-03
               8.2033147894308624E-04
               8.9998808316857685E-04
              -4.5577137102391162E-04
              -1.4525691576416340E-03
              -3.0937477079884769E-03
              -1.9908766634374003E-04
               1.8164921181491188E-03
              -8.2004032739544546E-04
              -1.1788782657526815E-03
               8.7909237682159947E-04
               5.5247612895093961E-03
               1.1921024739871111E-03
              -4.4510737243666533E-03
              -1.1304628778014887E-03
               3.6350320423187035E-03
               2.9043805603872343E-03
              -6.2489693532992148E-04
              -2.8286916463808342E-03
              -4.1519967791521896E-03
               1.2796715303605461E-03
              -1.4077322041495593E-03
              -1.5922942313573410E-03
              -1.1829492167035599E-04
               1.9804612923127029E-03
               1.7083282163223778E-03
               5.3786527620711512E-03
              -2.4601451813581277E-03
              -2.7835772369912823E-03
              -1.4157258388318465E-03
               7.5861802158443698E-03
              -6.5164456825712413E-04
               3.5520337723585638E-03
              -5.9854007462354477E-03
               4.7981170362466311E-04
               1.1026756976792678E-02
              -7.3049607408189427E-03
              -5.0603944110622322E-03
              -1.3863636953618771E-02
               1.1420949526081524E-02
               1.1792127382933296E-02
               1.4581090921091766E-03
              -4.7132561408635013E-03
              -1.8926919276883035E-03
              -9.7235991159431003E-04
               2.7387425239730214E-03
               1.1979477279634410E-02
              -7.9887439547523880E-04
               3.0299886694770846E-04
               3.7823318772260686E-03
              -3.4920526538195422E-03
               6.0480119885796694E-03
               8.7739758125302894E-03
               6.9257920998141414E-03
               1.6884283171868728E-03
              -7.9038058130578952E-03
              -6.5203649806187759E-04
              -6.2529250642985165E-03
               3.8774315152644667E-03
              -3.5990922690387322E-03
              -1.7285137866275679E-03
              -1.4855906660540253E-03
               1.0001044718067415E-04
              -1.5712704300717862E-03
              -2.2434963632783841E-03
              -2.7696745950242614E-03
               5.8166028136693339E-03
               8.1834183116425430E-03
              -1.4979359600541143E-03
               3.7456630342518013E-03
               5.1397767371130221E-03
               2.7372488501973213E-03
              -2.9123692587394927E-03
              -7.2838341098449876E-03
               1.0191020920680798E-03
              -1.7997978330406834E-03
               1.7771836117690278E-04
               1.3287117469840564E-03
               6.3926391017594627E-04
               9.7024795790805868E-04
               2.3724263776321841E-04
               4.6345702439060284E-03
              -3.3843107257140220E-03
              -1.2823370477754050E-04
               9.7622179458733581E-04
              -1.8324245400020596E-03
               9.1585611022234963E-04
              -2.0166925483410332E-03
               6.9251512677553952E-03
               5.0076988747156563E-03
              -2.1128324105323614E-03
              -1.9335778697642122E-03
              -2.8801854916969656E-03
              -1.3391007785246963E-03
               5.3359239890088577E-03
              -9.9131399974439357E-04
               4.4707703354228100E-03
               5.2544876660395069E-03
               2.4320127902217221E-03
              -6.4293359244761939E-03
               2.0757669551300833E-03
              -9.1819915808815798E-04
               3.0687949690803829E-03
               5.4295173742299231E-04
               4.1745707508694749E-03
               6.7435087206953485E-04
              -2.0098558426533148E-03
               6.5681128560617094E-03
              -1.6056436179374210E-02
               1.7023150528076954E-02
              -4.4445791914876518E-03
              -5.2483758856170333E-03
              -5.4474797119819481E-03
               8.3227888521878205E-04
               3.7243145086355103E-03
              -2.0689244842796838E-03
               2.0526812599083806E-03
               3.6372437763466576E-03
              -5.0801671311016530E-03
              -5.9113456838304794E-03
               1.0114563409548307E-02
              -9.2116231407046809E-03
              -6.8535125847137010E-03
               2.7552079456488617E-03
               2.2032368489366492E-03
               3.2446594298226428E-03
              -9.7315939385848246E-03
               3.5488949585155754E-03
              -2.0494537701291437E-03
              -3.8427553500514698E-03
               4.3413776438948389E-03
               2.1931453874907770E-03
              -1.3590448682222422E-03
              -8.1599301935676933E-04
              -5.3086606855465871E-03
               9.7258617709037425E-03
              -4.3281316143297085E-03
               3.8397390727584685E-03
              -4.3825086666462142E-03
               1.5906994081537403E-03
               1.6650190589498834E-03
               4.7272137716254084E-04
              -1.7770766452865642E-03
              -2.9687262798003310E-03
               4.1837802434117573E-04
               6.3133074122846073E-03
              -3.0583741753802932E-04
              -3.0685423681170703E-03
              -8.2903436540074267E-03
               6.0251380259158027E-04
               1.9772354430271826E-03
               1.9011676454737744E-04
               4.0878854051785074E-03
              -3.5428775689547516E-03
               5.7966300056487251E-03
               3.2155066461822634E-03
              -8.2929004742435738E-03
              -6.5189500420639555E-03
              -1.5644078794582075E-03
              -4.9278376360718211E-03
               2.6649122362453074E-03
              -2.6536697714072107E-03
              -6.2127706029344500E-03
              -3.0417263448268232E-03
               1.0145411789965674E-02
               3.7342702772709328E-03
               6.9297605862457586E-03
               1.0084884534117874E-04
               3.3131178668107759E-03
              -1.1366266620508562E-03
              -5.8134012758937394E-03
               2.0226279114107346E-03
               2.0372848516967659E-03
              -3.3780862528394792E-03
               2.8066954230784374E-03
               1.7991014394525961E-03
              -2.4442070412246373E-03
               2.4885956567638690E-04
              -1.7033747955678877E-03
              -1.0981214172088929E-02
               5.4004037544003406E-03
               3.0222858363571938E-04
               9.8133435940386381E-03
               5.9582238184027801E-04
              -2.8298023234890287E-03
         &END THERMOSTAT_ENERGY
         &RNG_INIT
Wiener process for Thermostat # 1        1 F T T  -9.8236738167888460E-01         226733040.0        4248387519.0        1164353849.0        2758509449.0        3644127687.0        1764793484.0             12345.0             12345.0             12345.0             12345.0             12345.0             12345.0             12345.0             12345.0             12345.0             12345.0             12345.0             12345.0
Wiener process for Thermostat # 2        1 F T T  -1.4171306107827426E+00        1528154308.0        2775625301.0         197130159.0        1452211673.0        1835562137.0        1983376171.0        3692455944.0        1366884236.0        2968912127.0         335948734.0        4161675175.0         475798818.0        3692455944.0        1366884236.0        2968912127.0         335948734.0        4161675175.0         475798818.0
Wiener process for Thermostat # 3        1 F T T   8.6049543281786645E-01        2248570378.0        1724762616.0          52903713.0        3229622658.0        3199004837.0        4241126217.0        1015873554.0        1310354410.0        2249465273.0         994084013.0        2912484720.0        3876682925.0        1015873554.0        1310354410.0        2249465273.0         994084013.0        2912484720.0        3876682925.0
Wiener process for Thermostat # 4        1 F T T  -1.5460863137690717E+00         957380376.0         510326667.0        2247033635.0        2033071685.0        3054261466.0        3462352516.0        2338701263.0        1119171942.0        2570676563.0         317077452.0        3194180850.0         618832124.0        2338701263.0        1119171942.0        2570676563.0         317077452.0        3194180850.0         618832124.0
Wiener process for Thermostat # 5        1 F T T   1.5428690481661575E-01        4203301200.0         738999836.0        1485820986.0          20648636.0        2223680357.0        4294941489.0        1597262096.0        3906379055.0        3312112953.0        1016013135.0        4099474108.0         275305423.0        1597262096.0        3906379055.0        3312112953.0        1016013135.0        4099474108.0         275305423.0
Wiener process for Thermostat # 6        1 F T T   7.0411917217518150E-01        1265311014.0        3687607523.0        1792102642.0         142025920.0         459804801.0        1211121065.0          97147054.0        3131372450.0         829345164.0        3691032523.0        3006063034.0        4259826321.0          97147054.0        3131372450.0         829345164.0        3691032523.0        3006063034.0        4259826321.0
Wiener process for Thermostat # 7        1 F T T  -9.5744195640119531E-02        4040223344.0        4246262317.0         329086624.0          28777921.0        2946509694.0        1489700490.0         796079799.0        2105258207.0         955365076.0        2923159030.0        4116632677.0        3067683584.0         796079799.0        2105258207.0         955365076.0        2923159030.0        4116632677.0        3067683584.0
Wiener process for Thermostat # 8        1 F T T  -1.2413826789147817E-01         252045112.0        2848200345.0         154646410.0        1271924195.0        1873079261.0        3351978939.0        3281794178.0        2616230133.0        1457051261.0        2762791137.0        2480527362.0        2282316169.0        3281794178.0        2616230133.0        1457051261.0        2762791137.0        2480527362.0        2282316169.0
Wiener process for Thermostat # 9        1 F T T   1.0331244080464512E+00        3784506675.0        1914172684.0        3527875272.0        1610827989.0        3855196701.0        1117597481.0        3777646647.0        1837464056.0        4204654757.0         664239048.0        4190510072.0        2959195122.0        3777646647.0        1837464056.0        4204654757.0         664239048.0        4190510072.0        2959195122.0
Wiener process for Thermostat # 10       1 F T T   2.1466585360569199E-01        3057685686.0        2869029583.0         411221469.0        2821893460.0         322924656.0        1143227575.0        4215590817.0        3862461878.0        1087200967.0        1544910132.0         936383720.0        1611370123.0        4215590817.0        3862461878.0        1087200967.0        1544910132.0         936383720.0        1611370123.0
Wiener process for Thermostat # 11       1 F T T  -4.4132046785776799E-02        1554543736.0        2717576499.0        4135075403.0        2618383353.0         642871762.0         249586537.0        1683636369.0         362165168.0         814316280.0         869382050.0         980203903.0        2062101717.0        1683636369.0         362165168.0         814316280.0         869382050.0         980203903.0        2062101717.0
Wiener process for Thermostat # 12       1 F T T  -5.6161533877704317E-01        1770324141.0        3770017049.0         190859559.0         764828178.0        2918138424.0         736540625.0         272317999.0         166758548.0         310112982.0         201045826.0        1680231254.0         118290799.0         272317999.0         166758548.0         310112982.0         201045826.0        1680231254.0         118290799.0
Wiener process for Thermostat # 13       1 F T T   9.7554409384929153E-01        3627045108.0        1898589428.0        2752141753.0          85759421.0        2499273175.0        1137986601.0        2245755202.0        1652682525.0        2865544364.0         721509566.0         209733568.0         592362218.0        2245755202.0        1652682525.0        2865544364.0         721509566.0         209733568.0         592362218.0