 # Version information for this restart file 
 # current date 2024-11-22 16:15:27.128
 # current working dir /scratch/work/courses/CHEM-GA-2671-2024fa/students/ra3194/comp-lab-class-2024/Week12-IntroAIMD/Runs/Proton
 # Program compiled at                              Sat Dec 12 18:27:15 EST 2020
 # Program compiled on                                         cs001.nyu.cluster
 # Program compiled for                                                nyu-intel
 # Source code revision number                                       git:8c64c6e
 &GLOBAL
   PRINT_LEVEL  LOW
   PROJECT_NAME proton_aimd_1ns_every0.5fs
   RUN_TYPE  MD
   WALLTIME 21600
 &END GLOBAL
 &MOTION
   &GEO_OPT
     OPTIMIZER  BFGS
     MAX_ITER  100
     MAX_DR     3.0000000000000001E-03
     &BFGS
     &END BFGS
   &END GEO_OPT
   &MD
     ENSEMBLE  NVT
     STEPS  1000
     TIMESTEP     4.9999999999999994E-01
     STEP_START_VAL  999
     TIME_START_VAL     4.9949999999999631E+02
     ECONS_START_VAL    -1.1027954174996337E+03
     TEMPERATURE     3.0000000000000000E+02
     &THERMOSTAT
       TYPE  GLE
       REGION  MASSIVE
       &GLE
         NDIM  5
         A_SCALE     1.0000000000000000E+00
         A_LIST     1.8595758612559999E+02    2.7263853498399998E-01    1.1526100454610001E+01   -3.6414578262600003E+01 \
             2.3173375816020001E+02
         A_LIST    -2.7809524712060002E-01    8.5951591808710006E-05    7.2189048017650004E-01   -1.9844539343859999E-01 \
             4.2409257583420001E-01
         A_LIST    -1.4825808131210000E+01   -7.2189048017650004E-01    1.3590902121280000E+00    5.1498896280349999E+00 \
            -9.9949268450990001E+00
         A_LIST    -1.0372189126880000E+01    1.9844539343859999E-01   -5.1498896280349999E+00    2.6661910891169999E+01 \
             1.1507715495310000E+01
         A_LIST     2.1801346360420001E+02   -4.2409257583420001E-01    9.9949268450990001E+00   -1.1507715495310000E+01 \
             3.0958394565589998E+02
         &THERMOSTAT_ENERGY
               2.3010636971325681E-03
              -2.5099968313509939E-04
              -2.0558628203452790E-03
               7.9860996405841361E-03
              -9.9861239269579648E-03
              -5.0487142358065186E-03
               4.8741778894356930E-03
              -2.5382850682684460E-03
               2.7193464163498930E-03
               4.3713189601955896E-03
               7.5523679326020311E-03
              -4.1686867211017387E-03
              -5.9601531162219437E-03
              -5.0109191439082768E-03
               5.0166879701429761E-03
              -8.1227595263504409E-03
               7.1471789778298628E-03
              -2.7371374743777343E-03
               3.2397441532772391E-03
               2.8101980486619526E-04
               1.3265864364905057E-03
               1.3513360674557908E-03
              -8.8182631142658657E-03
               4.5126436905276800E-04
               5.0531150374932073E-04
              -6.1796709451548103E-03
               1.3494928906348379E-03
               6.5574786145718789E-03
               3.9514315501591136E-03
               2.5040778540863506E-03
              -5.4336860835845994E-03
               1.5085612229755662E-03
               8.5926560992417664E-03
               2.2423336918491162E-03
              -1.3127750051424516E-02
               1.2928556153945260E-02
              -3.4452157473866783E-03
               1.0642904061355777E-03
               4.0444258345620769E-04
              -7.8091111422068206E-03
               6.1832547452475703E-03
               5.5412373463769986E-04
               5.3296466226603759E-03
               2.8775575704309202E-03
              -2.5593551463261965E-03
               8.4630541779940065E-04
              -2.9538794345913113E-03
               2.9839803789151248E-03
               5.6388247741789507E-04
              -1.0808548803219473E-03
               3.6806114024463235E-03
              -5.3745613412694805E-03
              -4.7521078352555472E-03
               4.1636006535865225E-03
              -4.9235323370259085E-03
               3.7585244458071738E-03
              -2.9884300965725401E-03
               3.8119254891616681E-03
               4.1421725570144633E-04
               5.8291403060868208E-03
              -5.1125882261703684E-03
               2.7659875014538191E-03
               1.2400689591561809E-02
              -4.2605473766060718E-03
               2.9427989725361862E-04
               1.7623940398887349E-03
              -4.7754543888554202E-03
               6.5876648851322574E-03
               6.8330322917896716E-03
               1.2174051036579750E-03
              -1.0866088705839003E-03
               2.1860052477149705E-03
              -4.1741735243925335E-03
               1.0921101864360655E-03
              -4.7447205681197067E-03
              -8.4474320312327728E-03
               6.8776592289069693E-03
               6.9479549016453965E-03
               1.0388561753932804E-02
              -3.3143770316584977E-03
              -3.1139276631027037E-03
              -1.8088647958282901E-03
               1.9938398622182363E-03
              -3.1080807619824529E-04
               2.8522042506058439E-03
               5.5516573791509708E-03
              -1.3450366493387180E-03
               8.5070726438690356E-04
               5.3687171477371049E-03
              -4.7563920296485353E-03
               4.9112510681740187E-03
              -2.8578450249409923E-03
               2.2529963200867841E-03
               2.4593069188238352E-03
              -1.3119855770983822E-02
               1.0865842559387093E-02
               4.8316777104550936E-03
               2.9053767118764834E-03
               4.1698947506046734E-03
               5.8574964654368282E-03
               2.6830853654427195E-03
              -3.7849100119361916E-04
              -5.7615692162507849E-03
               1.6329296924138333E-03
               3.2715517069244002E-03
               1.4063276307906679E-02
               1.1483399582136932E-03
              -1.9780054524321244E-03
               5.9269669296552032E-03
              -2.1875087308866714E-03
              -2.0251048771374801E-04
              -9.1244630699378482E-03
               5.8627256426182790E-03
               8.7947823224456771E-03
               1.6430847131276561E-03
               5.5943960254418177E-03
              -1.0507223097786331E-02
               4.4705066965929829E-03
               1.6492311679231415E-03
              -1.7534437951316167E-03
               2.0345392295211821E-03
               2.1181222923382912E-03
               2.6845084313282318E-03
               6.0939068089024837E-03
              -3.7802103986565262E-03
              -7.6700847578007204E-03
               6.0000486798530029E-03
              -1.0240346855247997E-03
               5.2785098745485063E-03
              -4.0782711592877302E-03
              -8.9578563898768220E-03
               6.3021258695324378E-03
               6.8351442586941447E-03
              -3.7800537396935740E-03
              -7.2900368582532534E-04
               4.9982912923505277E-03
              -7.7776050331395378E-05
              -4.5121680738250663E-03
               1.4987279907540773E-03
              -9.7087198759649752E-03
               2.8482044053798681E-03
               2.1362879692695558E-03
               8.2641257065202804E-03
              -6.5169305204759622E-04
              -6.8572088136542898E-03
              -2.8169050668355056E-03
               1.0380646492521715E-02
              -7.2811871728055283E-03
              -2.9916412889325087E-03
               1.3721359000738503E-03
              -4.2151265549551301E-03
               8.5963076055017504E-03
              -3.1173550059792770E-03
              -1.0589315695324242E-03
              -9.8851482896103850E-04
               1.3341866795195168E-03
               6.7367496720144629E-04
              -3.1585043366289759E-03
              -2.1392309035138495E-03
               2.2243718955422976E-03
              -2.0437410310390826E-04
              -2.0547513940139257E-03
              -1.1507210689250243E-03
              -1.4273681396480657E-03
               4.3227700236808117E-03
               9.6044976820861255E-03
               8.5464439813951725E-03
              -1.1040628991910498E-02
              -7.2255117456052924E-03
               3.0232078154698353E-03
              -2.8550076543587969E-03
               3.8531675330561729E-04
              -1.1840269364656458E-03
               5.4807480703432539E-04
              -8.8096873673188371E-04
               9.7479430651111823E-03
              -1.3956395570969110E-02
              -3.1781828511021192E-03
              -1.0948126289862720E-03
               4.6449804688255296E-03
               3.0428854657355026E-03
              -2.0503963387585077E-03
               1.2221358915365903E-03
              -9.6827720854540892E-03
               5.4097334843046917E-03
              -9.3669767255564389E-04
              -9.6585856947951736E-03
               6.4010056853328360E-03
              -2.6133961168853881E-03
               1.6202566753772520E-03
               2.7936241519630413E-03
              -3.3338782044505738E-03
              -3.0924497093847555E-03
               4.7862533472215743E-03
               6.9504491752510862E-03
               1.8889062612389697E-04
              -4.5718141739910173E-03
               8.0806820659629214E-03
              -2.0612235340220848E-03
               1.2197871197244679E-03
              -1.0376809211038581E-03
              -9.4666325135771973E-03
               1.0289605330036589E-02
               2.1550876455866961E-03
              -6.0622383104870254E-04
               3.8892780613505066E-03
              -6.9673091626166724E-03
               2.8167626150056367E-03
               4.3162769573432958E-03
               2.5982339841374613E-03
              -1.1659651233774887E-03
              -3.1406923082317791E-03
               1.8328145021853978E-03
              -6.2689979668864157E-03
               1.9993329349299281E-03
               3.0716729183477435E-03
              -3.0662841895347163E-03
               5.4663781317441911E-03
              -1.6342627748911025E-03
              -4.8307850181449055E-03
              -2.8445814417332830E-04
              -6.2388998082220370E-03
              -8.5115648125491780E-04
               8.4521147882118659E-05
               1.8490619097644232E-03
               1.4415554853947510E-03
               1.4825754621661082E-03
               4.0543075006747717E-03
              -2.4483494836734059E-04
               7.3477984985045137E-04
              -5.8399698650721931E-03
              -5.4326690565802164E-03
               8.3556059103744116E-03
              -8.3447845663384996E-03
               4.6792442977975583E-03
              -1.3089027164654636E-03
              -1.8179121583492463E-03
              -4.0877775744662038E-06
              -1.7897247388064695E-03
              -7.0009407840766107E-04
               7.6804453684592129E-03
              -9.0636594976006499E-03
               6.2585078215246599E-03
               2.6610862913361965E-03
               2.4828456150196333E-03
               3.7097650568164138E-04
              -6.5355690279431181E-03
              -3.0312938657645538E-03
               2.3961128124573806E-03
              -3.0592026529126142E-03
               4.5788399030911022E-03
              -2.3155860526992058E-03
              -9.5418744256307707E-03
              -3.0079923686879002E-03
               5.4299851697217150E-04
              -4.7864475534483055E-03
               1.6290267527675099E-02
              -7.5354421577460817E-03
               3.0299577068837623E-03
              -1.5454047709972833E-02
               9.6964393513137154E-03
               1.5804223262911022E-03
              -3.5534355714330803E-03
              -1.5038310729803548E-03
               4.1540491495918380E-03
               1.2898239619290183E-03
               1.5485068100141212E-03
               6.1416234934194205E-03
              -3.1400518996605314E-03
               7.8896735852961048E-03
               3.0809062486501712E-02
               1.9954635550274331E-03
               1.5193363089948467E-02
               4.7685559840471162E-03
              -1.3415804240387904E-03
               3.7528579507000587E-04
              -6.4786428353619538E-03
               6.8808047583095141E-03
              -2.9107985786839506E-03
               3.6286800386436386E-03
               2.0469035356721118E-03
              -9.3072432994734961E-03
               4.0598888382656195E-03
               1.0160780548176323E-03
               3.6633328154998899E-03
               3.0447315024384239E-03
              -6.4130782636769414E-04
               4.1175426071175941E-03
              -9.8789747626249046E-03
               1.1129180065244932E-02
               9.8612496075552170E-04
               2.5409163532485388E-03
              -1.1804693758765430E-03
               3.5737414689325231E-03
               3.6240326695194994E-03
               1.0178677753733254E-03
              -8.4001304189837128E-03
               5.5328060553015302E-03
               5.1518538028577148E-03
              -8.1659794747489176E-03
              -3.6855276097905974E-03
               4.7008158311130591E-03
               1.6246415001331504E-03
               1.3098992173122298E-02
              -4.7815328515079820E-03
              -3.8967991929160636E-03
              -4.9697218772085062E-03
              -4.6783966066266313E-03
               1.7205212170009988E-03
               6.9882470336893382E-03
              -2.3751206540024482E-03
              -3.1885895066938183E-03
              -2.5882719003431742E-03
               5.7954849477741114E-05
              -1.8815090442723687E-04
              -6.0788866779593644E-03
              -9.6818302587530648E-03
               1.6925055233420812E-03
              -5.7499190601862284E-03
              -3.6848194505201908E-03
               3.9653925344252999E-03
               5.5417045088772959E-04
               3.0536511621957968E-03
              -3.8497639558542798E-03
               3.2385128298320610E-03
               6.8505353024061813E-03
               3.4565412371973503E-03
               5.8191177680276974E-04
               2.5639576664320961E-03
              -2.3886440137793451E-04
              -2.4614522315353953E-03
               1.3032832775277294E-03
               4.5720410940938332E-03
               1.9270032356234203E-04
              -3.3289606772313124E-03
              -1.0343097369407718E-03
               2.5274198796720547E-03
              -2.1897533049938509E-03
               2.2433715533352236E-03
               6.0236241415449476E-03
              -7.8343728352889969E-03
               1.7738108981591814E-03
               1.0421327689580840E-02
              -1.9104526559944376E-03
              -2.6862440036268525E-04
               1.9356350070432759E-03
               2.1143266577481135E-03
              -5.3770101613994110E-03
               4.8686957360866666E-03
              -2.2908262343768020E-03
              -3.8674696789101838E-03
              -1.2884146455362021E-03
              -9.2263574008588482E-04
               1.0886484625105234E-03
               2.8576681372905143E-03
              -3.1671089981569222E-03
              -1.9170961081631977E-03
               1.6628268300283035E-03
              -5.5459918940516384E-03
               3.1874263130161964E-03
              -3.6504448342794104E-03
               5.4342864224740965E-03
               4.8654384405704774E-03
              -2.9508016588172294E-04
              -1.5000648595550675E-03
               2.3283651910426320E-03
               9.1418230903423589E-03
               7.7544311303401666E-03
              -1.7578101562864948E-02
               9.6544537995094852E-04
              -2.6246723457807519E-03
               3.8559062153033933E-03
              -1.3987007904860604E-03
              -1.7344869596489538E-03
              -2.3223552489094436E-04
              -1.4913595819710025E-03
              -7.6149275423760552E-03
              -7.9927070229738779E-03
              -6.2498362929166457E-03
               6.4808013002892149E-03
               3.5137662392821564E-03
              -1.2424421541190321E-03
              -2.8230450699976337E-03
              -1.8303461829804728E-03
              -9.6457365207867594E-03
              -1.1964217188320495E-03
               3.4286281400435895E-03
               3.4885028041208820E-03
              -3.7037952099330321E-03
               5.8666888059168082E-03
              -3.2412855877306723E-03
               4.8245783339197412E-03
              -7.6065989845205896E-04
              -5.9441792393314452E-03
               5.2933660113504864E-03
               6.6226130488903408E-04
               1.6646333670973295E-04
              -4.5093207485040194E-04
              -1.3647980409435155E-03
              -3.3276548702279628E-03
              -6.2746607255344277E-04
               1.2336172232969723E-03
              -8.6566803963807808E-04
              -1.1860355954284025E-03
               8.5214667921426938E-04
               6.1073255274166462E-03
               1.2702580125108960E-03
              -5.1892035520088326E-03
              -1.3518392951996291E-03
               3.4494438623353836E-03
               3.0355599646395360E-03
              -8.8700811089621127E-04
              -2.5888976329738042E-03
              -3.7304523623958937E-03
               1.1697482866053076E-03
              -1.2708580799125075E-03
              -7.4280397607250385E-04
               3.6842150719222676E-04
               2.1675282807191096E-03
               1.9716948616860077E-03
               5.2553052258193190E-03
              -2.3912448452154409E-03
              -2.7395270429259122E-03
              -1.3374709532238196E-03
               7.5407581575272194E-03
              -5.1237747235721113E-04
               3.6676615115774293E-03
              -6.1903888133573205E-03
               4.7290477489087890E-04
               9.6721176319779067E-03
              -6.6707530678419471E-03
              -4.7226969765825060E-03
              -1.3956407738150019E-02
               1.1534153911712898E-02
               1.1827092585251770E-02
               1.4727766453954487E-03
              -4.7572707416826468E-03
              -1.9352044902709007E-03
              -8.3826695937384821E-04
               2.5971613919916719E-03
               1.1361864739307476E-02
              -7.9828758630020918E-04
               3.4524938377149299E-04
               3.7478476356445768E-03
              -3.7474473041548468E-03
               6.0027767277584260E-03
               9.0563312004972498E-03
               7.0677924722305913E-03
               1.8903799945646966E-03
              -8.4190495439293942E-03
              -6.4486993212798012E-04
              -6.5547959346221501E-03
               5.2255741705612901E-03
              -3.5973164071163048E-03
              -1.6499268654784959E-03
              -1.6958442645698684E-03
               4.2911533039708782E-04
              -1.5818644190135019E-03
              -1.3959390131714094E-03
              -3.0405116573140934E-03
               5.9715237454708026E-03
               7.9625948034132889E-03
              -1.5295520433700823E-03
               3.9040815933913215E-03
               5.2471792061913221E-03
               2.8604391559899677E-03
              -3.1470702219665984E-03
              -8.3186039402174498E-03
               1.1102017627886037E-03
              -1.0794915070533343E-03
               2.2019238644506667E-04
               1.4319922688171677E-03
               7.5843829901745051E-04
               1.7458225236092265E-03
               2.8561120003931282E-04
               4.6132247097352410E-03
              -3.1554154809105596E-03
              -1.1945837214249710E-04
               9.4034453042628782E-04
              -1.8686835561598624E-03
               8.7891244101649863E-04
              -1.9112068139201059E-03
               7.2377892576903444E-03
               5.3048523101064662E-03
              -2.1796613985104176E-03
              -3.2710549414603296E-03
              -2.8569345681479915E-03
              -7.2233046809313389E-04
               5.3104343485298666E-03
              -7.5410320389504896E-04
               4.2161581137704317E-03
               4.9210161583824680E-03
               2.3711160705184426E-03
              -5.9454149070617907E-03
               2.0189247935750443E-03
              -8.6264524077440063E-04
               2.9891872405554869E-03
               3.6439570054315397E-04
               4.1672014452251256E-03
               6.5381636714142316E-04
              -2.1580299878475795E-03
               6.5967129176696133E-03
              -1.5961976238361559E-02
               1.7044898999464368E-02
              -4.4346696559381558E-03
              -5.2822773523410905E-03
              -5.5567653179560651E-03
               8.3444622827102337E-04
               3.6833646383134027E-03
              -1.8654156880020527E-03
               1.6018582158716448E-03
               3.8711140845275973E-03
              -4.8496395197335715E-03
              -4.5657664812081321E-03
               1.0134609633204556E-02
              -9.6789005452023198E-03
              -6.3592802188954774E-03
               2.7992184102777176E-03
               2.5486195257987758E-03
               3.2709876228525056E-03
              -1.0093644848563359E-02
               4.0035140396715583E-03
              -2.1018992593269843E-03
              -2.9376020169507590E-03
               4.6875806442639714E-03
               1.9567876949520640E-03
              -1.3499805001826078E-03
              -3.9829590143742216E-04
              -5.3516889037414379E-03
               9.9229712658652977E-03
              -4.6114091885215451E-03
               3.8513226407569955E-03
              -4.3425435163503331E-03
               1.5986892452161331E-03
               2.4273407979192863E-03
               5.4672355553767645E-04
              -1.7228024998718857E-03
              -2.8944395136764577E-03
               1.8613495700897458E-04
               6.3079072319174329E-03
               6.6140299418442549E-04
              -3.1101396392972120E-03
              -9.1492767027146638E-03
               3.1646283527944153E-04
               2.0460787224717623E-03
               2.6379707734168988E-04
               4.1440467410361077E-03
              -3.4211240692737788E-03
               5.7437981239366271E-03
               3.2377794097797558E-03
              -8.4457895656193556E-03
              -6.7174536841909781E-03
              -2.0268745420958158E-03
              -4.1930180392717713E-03
               2.5117252129593830E-03
              -2.5118277778295997E-03
              -5.5713264233187539E-03
              -2.9755759235536336E-03
               1.0035002907274090E-02
               3.7407971562496540E-03
               7.0784212555052364E-03
               8.5781279439754035E-05
               2.6132522987717074E-03
              -1.0541978877163904E-03
              -5.7114699878448817E-03
               2.0344912069002827E-03
               3.0719735082848612E-03
              -2.5683966924477746E-03
               2.8166957712480664E-03
               1.9870013499536246E-03
              -2.1698736364469439E-03
              -4.6428520359554308E-04
              -1.8163040171873092E-03
              -1.1205575283745271E-02
               5.3924292276816208E-03
               6.0960597613619167E-04
               9.8257275134071079E-03
               9.9837750424862240E-04
              -3.0103262775033951E-03
         &END THERMOSTAT_ENERGY
         &RNG_INIT
Wiener process for Thermostat # 1        1 F T T   8.9775274228955693E-01         763729258.0        2182815630.0        1816883415.0        1066729424.0        2674796944.0         356348066.0             12345.0             12345.0             12345.0             12345.0             12345.0             12345.0             12345.0             12345.0             12345.0             12345.0             12345.0             12345.0
Wiener process for Thermostat # 2        1 F T T   1.0987822301725423E+00        3965034595.0        3411742577.0        3774170409.0        3191532242.0        4082685227.0        1560777643.0        3692455944.0        1366884236.0        2968912127.0         335948734.0        4161675175.0         475798818.0        3692455944.0        1366884236.0        2968912127.0         335948734.0        4161675175.0         475798818.0
Wiener process for Thermostat # 3        1 F T T   2.4340757527843401E-01         520164219.0        1848885905.0        2986832923.0        4264676203.0        3571518754.0        3073504132.0        1015873554.0        1310354410.0        2249465273.0         994084013.0        2912484720.0        3876682925.0        1015873554.0        1310354410.0        2249465273.0         994084013.0        2912484720.0        3876682925.0
Wiener process for Thermostat # 4        1 F T T   9.9204659862460232E-01        3484113436.0        2329669731.0        1490315125.0        1536718481.0        3332060260.0        1431684492.0        2338701263.0        1119171942.0        2570676563.0         317077452.0        3194180850.0         618832124.0        2338701263.0        1119171942.0        2570676563.0         317077452.0        3194180850.0         618832124.0
Wiener process for Thermostat # 5        1 F T T  -9.2302528114612159E-01        2771895156.0        2570398436.0        4011591488.0        2243185508.0        2088115668.0        2125862931.0        1597262096.0        3906379055.0        3312112953.0        1016013135.0        4099474108.0         275305423.0        1597262096.0        3906379055.0        3312112953.0        1016013135.0        4099474108.0         275305423.0
Wiener process for Thermostat # 6        1 F T T   2.1770181947937070E-01        3562045432.0        3773073970.0         517147499.0        2186582247.0         505760692.0        2594030488.0          97147054.0        3131372450.0         829345164.0        3691032523.0        3006063034.0        4259826321.0          97147054.0        3131372450.0         829345164.0        3691032523.0        3006063034.0        4259826321.0
Wiener process for Thermostat # 7        1 F T T  -1.7973193918613969E-01        3924856775.0        1259972011.0        3604397490.0        2677869653.0        3521145316.0        1940354926.0         796079799.0        2105258207.0         955365076.0        2923159030.0        4116632677.0        3067683584.0         796079799.0        2105258207.0         955365076.0        2923159030.0        4116632677.0        3067683584.0
Wiener process for Thermostat # 8        1 F T T  -8.8479691538422445E-01        1070467323.0        3808028440.0        2425908924.0          87870707.0        2736125963.0        1926835999.0        3281794178.0        2616230133.0        1457051261.0        2762791137.0        2480527362.0        2282316169.0        3281794178.0        2616230133.0        1457051261.0        2762791137.0        2480527362.0        2282316169.0
Wiener process for Thermostat # 9        1 F T T   5.9400386120351645E-01         294974312.0         876410757.0        3316490696.0        2668308652.0        2720315105.0        1041936172.0        3777646647.0        1837464056.0        4204654757.0         664239048.0        4190510072.0        2959195122.0        3777646647.0        1837464056.0        4204654757.0         664239048.0        4190510072.0        2959195122.0
Wiener process for Thermostat # 10       1 F T T   1.2436799339469692E-01        3466586745.0        3514441763.0         319489603.0         935929779.0         980683700.0        2872837080.0        4215590817.0        3862461878.0        1087200967.0        1544910132.0         936383720.0        1611370123.0        4215590817.0        3862461878.0        1087200967.0        1544910132.0         936383720.0        1611370123.0
Wiener process for Thermostat # 11       1 F T T  -1.3492599939582866E+00        2646923687.0         269911394.0        3123559664.0        4197187544.0        3691682276.0        2566853960.0        1683636369.0         362165168.0         814316280.0         869382050.0         980203903.0        2062101717.0        1683636369.0         362165168.0         814316280.0         869382050.0         980203903.0        2062101717.0
Wiener process for Thermostat # 12       1 F T T  -1.7617067609957300E+00         874059353.0        1962557728.0        2974164949.0        4087775623.0         149015242.0        3758833589.0         272317999.0         166758548.0         310112982.0         201045826.0        1680231254.0         118290799.0         272317999.0         166758548.0         310112982.0         201045826.0        1680231254.0         118290799.0
Wiener process for Thermostat # 13       1 F T T  -7.6977021371894983E-01         726430837.0        2243629094.0        1090071616.0        3499496981.0        1945508799.0         350521599.0        2245755202.0        1652682525.0        2865544364.0         721509566.0         209733568.0         592362218.0        2245755202.0        1652682525.0        2865544364.0         721509566.0         209733568.0         592362218.0