 # Version information for this restart file 
 # current date 2024-11-22 16:15:11.996
 # current working dir /scratch/work/courses/CHEM-GA-2671-2024fa/students/ra3194/comp-lab-class-2024/Week12-IntroAIMD/Runs/Proton
 # Program compiled at                              Sat Dec 12 18:27:15 EST 2020
 # Program compiled on                                         cs001.nyu.cluster
 # Program compiled for                                                nyu-intel
 # Source code revision number                                       git:8c64c6e
 &GLOBAL
   PRINT_LEVEL  LOW
   PROJECT_NAME proton_aimd_1ns_every0.5fs
   RUN_TYPE  MD
   WALLTIME 21600
 &END GLOBAL
 &MOTION
   &GEO_OPT
     OPTIMIZER  BFGS
     MAX_ITER  100
     MAX_DR     3.0000000000000001E-03
     &BFGS
     &END BFGS
   &END GEO_OPT
   &MD
     ENSEMBLE  NVT
     STEPS  1000
     TIMESTEP     4.9999999999999994E-01
     STEP_START_VAL  997
     TIME_START_VAL     4.9849999999999625E+02
     ECONS_START_VAL    -1.1027954174996337E+03
     TEMPERATURE     3.0000000000000000E+02
     &THERMOSTAT
       TYPE  GLE
       REGION  MASSIVE
       &GLE
         NDIM  5
         A_SCALE     1.0000000000000000E+00
         A_LIST     1.8595758612559999E+02    2.7263853498399998E-01    1.1526100454610001E+01   -3.6414578262600003E+01 \
             2.3173375816020001E+02
         A_LIST    -2.7809524712060002E-01    8.5951591808710006E-05    7.2189048017650004E-01   -1.9844539343859999E-01 \
             4.2409257583420001E-01
         A_LIST    -1.4825808131210000E+01   -7.2189048017650004E-01    1.3590902121280000E+00    5.1498896280349999E+00 \
            -9.9949268450990001E+00
         A_LIST    -1.0372189126880000E+01    1.9844539343859999E-01   -5.1498896280349999E+00    2.6661910891169999E+01 \
             1.1507715495310000E+01
         A_LIST     2.1801346360420001E+02   -4.2409257583420001E-01    9.9949268450990001E+00   -1.1507715495310000E+01 \
             3.0958394565589998E+02
         &THERMOSTAT_ENERGY
               2.3883488877930160E-03
               4.7162999062099430E-04
              -2.0261126811033144E-03
               8.3651662586443614E-03
              -9.9106181628575568E-03
              -5.0116313150975703E-03
               4.7249858782069257E-03
              -3.4940914403856801E-03
               3.5949338446141189E-03
               4.2672715126961264E-03
               6.9928637894653596E-03
              -4.1039950359994517E-03
              -6.3306066443741867E-03
              -5.1553556384421797E-03
               4.5346651283617399E-03
              -7.8414783093017706E-03
               6.8317807587297353E-03
              -2.9490363520845802E-03
               5.3661055851200717E-03
               2.0262572578221542E-04
               1.2921457411675815E-03
               6.1498196040956775E-04
              -8.8859328973233467E-03
               5.4994787393038787E-04
               5.1933513671575612E-04
              -5.9102323010060279E-03
               9.6347170828020719E-04
               7.3272049446193345E-03
               3.9482406382633402E-03
               2.2253346063369041E-03
              -5.3665035738945247E-03
               1.3477945960430884E-03
               8.5036820152667395E-03
               2.0780079062374703E-03
              -1.3171723733293500E-02
               1.1402163594239269E-02
              -3.2437986821137587E-03
               1.2569378395513729E-03
               2.7453985966958288E-04
              -7.2667248652016026E-03
               5.8830423535852789E-03
               6.6093567081499250E-04
               5.6262245454963980E-03
               2.7714385371780570E-03
              -2.4794810188918620E-03
               1.2436078738764396E-03
              -2.9282631947972165E-03
               2.9772003233460250E-03
               7.8711265082766235E-04
              -1.1426688474364826E-03
               3.7000695501258145E-03
              -5.6895783544545610E-03
              -4.8515002961727911E-03
               4.7818199479175106E-03
              -4.5399445685599263E-03
               4.0817519010829754E-03
              -2.2479299319945450E-03
               4.7124233736195210E-03
               4.1226699030477015E-04
               5.4917618073311528E-03
              -4.6322859934287940E-03
               2.8354070042404811E-03
               1.2537120518004072E-02
              -3.9539037255989298E-03
               4.0233037184323785E-04
               1.6136549259853545E-03
              -4.8226410675181308E-03
               6.6603321102361958E-03
               6.6782259211085396E-03
               1.1105214140807312E-03
              -1.5649427068205979E-03
               2.0554444326203710E-03
              -3.6400100219651046E-03
               9.2215332790483739E-04
              -4.7389571211683412E-03
              -8.2707172984866507E-03
               7.1390097758383632E-03
               6.3350269106032453E-03
               1.0316492876218638E-02
              -3.7261807692626175E-03
              -2.9929361797658639E-03
              -1.6162640337672696E-03
               2.0886039823664730E-03
              -4.6268626968582613E-05
               9.6944794357041258E-04
               5.5107263143862172E-03
              -1.7969332189471320E-03
               8.8435315671784058E-04
               4.8306551857870009E-03
              -4.5085014940710339E-03
               5.5283182507759390E-03
              -4.4623032543470624E-03
               2.3805693724971303E-03
               2.3620322703499508E-03
              -1.3626215921929485E-02
               1.0824491309679158E-02
               4.3630663164437701E-03
               2.2177936074958700E-03
               4.3388750726932835E-03
               5.1903248656516039E-03
               1.9672582002436606E-03
              -7.8674134645102139E-04
              -5.9489742135263642E-03
               1.4580482077892855E-03
               3.2864232671239147E-03
               1.4148508595861191E-02
               1.1940639887102122E-03
              -1.9757355407374172E-03
               6.0951778811218571E-03
              -2.1975111098295700E-03
               4.5616498964308732E-06
              -8.7576335481289388E-03
               4.8960812065846279E-03
               8.8839398279400971E-03
               2.0645789602286766E-03
               5.6224791134642576E-03
              -9.9315131992265930E-03
               4.2618309770331214E-03
               1.4761648234265076E-03
              -1.7593012417395145E-03
               1.6338709749856085E-03
               2.1432795848865503E-03
               3.1761849179637075E-03
               5.9314951000803209E-03
              -3.6101514962923074E-03
              -8.3257992415302282E-03
               5.9888318183146314E-03
              -6.3745834763480824E-04
               5.0812614861068762E-03
              -3.9175028274306117E-03
              -8.4324389695579760E-03
               7.1609369559287967E-03
               6.9119093123761076E-03
              -4.2368020022900991E-03
              -3.5438336938984933E-04
               5.0585991891346866E-03
              -2.4168368564404449E-04
              -4.5750419199104813E-03
               1.4209356767377408E-03
              -1.0005423804347890E-02
               2.8654244874729137E-03
               2.3288761474446859E-03
               8.2773903313776674E-03
              -1.3593112043984002E-05
              -7.0520235912013901E-03
              -3.1861402770778182E-03
               1.0225357027050155E-02
              -7.6166545193894781E-03
              -2.5836830984426414E-03
               1.4153702383036656E-03
              -3.9560150747268040E-03
               8.1958975686726269E-03
              -3.3562209293987125E-03
              -9.9990498980577253E-04
              -7.8727762132229295E-04
               1.3597665579459866E-03
               1.4569559602376492E-03
              -2.5289834948705814E-03
              -1.2258810253881222E-03
               2.3292891641198917E-03
              -4.8064211888720670E-04
              -2.0499577677095060E-03
              -1.1414551719164787E-03
              -1.5134158991170193E-03
               4.6345890244987335E-03
               9.3531055615645453E-03
               8.2830719197305534E-03
              -1.1075453384080941E-02
              -7.2165976837051593E-03
               3.2530217066807456E-03
              -3.1596695494133611E-03
               1.2398188054990309E-03
              -4.5957056284790161E-04
               6.6743355373632865E-04
              -1.2037784962476991E-03
               9.4499277739368472E-03
              -1.3812594746960526E-02
              -3.1882350678449863E-03
              -5.5279237192921689E-04
               6.5058124483430317E-03
               2.8796120529391740E-03
              -1.9682023862368776E-03
               2.1070830738210214E-03
              -9.6144427263064377E-03
               5.7276202178289772E-03
              -1.2507429459473760E-03
              -9.8978840159412163E-03
               6.4622488738924249E-03
              -2.5492985851675760E-03
               1.8338315340820600E-03
               2.7770858024689822E-03
              -2.5515884286231734E-03
              -2.8518668015496580E-03
               4.4309691146428697E-03
               7.3872961171996899E-03
               2.8596463501317192E-04
              -4.9756921614249692E-03
               8.8537906184117682E-03
              -2.0555288915196342E-03
               1.3520343360747136E-03
              -1.2417096236510218E-03
              -7.5597335341279015E-03
               1.0193299443526815E-02
               2.4618338860283120E-03
              -8.6848411808803489E-04
               4.0394478351411679E-03
              -6.9275358121646804E-03
               2.7669886227001425E-03
               4.0542759483843324E-03
               2.6466900916367942E-03
              -1.0144844676082435E-03
              -3.9283886848130922E-03
               1.3777181278310548E-03
              -6.0251118766752026E-03
               2.8285417984658290E-03
               2.8914792324513106E-03
              -2.9395396573195123E-03
               5.1622729876631438E-03
              -1.8830630797193597E-03
              -4.4577270026404060E-03
              -7.0393315818802644E-05
              -6.2769099959627990E-03
              -8.6111620028987647E-04
               6.3004664237948792E-05
               2.2270111533976237E-03
               1.5065705954801032E-03
               2.3311103103853953E-03
               4.0650313463390418E-03
              -5.9630658760276658E-04
               7.1292551467013149E-04
              -5.6506901813971186E-03
              -5.6790131236532362E-03
               8.2727222893744148E-03
              -8.3261593692085609E-03
               4.5780829331639400E-03
              -1.5017074956293853E-03
              -1.5834891549776453E-03
              -4.1441680943211142E-04
              -1.2093781074928550E-03
              -1.3220864447813373E-03
               7.4696448666201369E-03
              -8.1090378100120378E-03
               6.3790222252017893E-03
               2.5598149196530608E-03
               2.2595781513082727E-03
               3.7799996390695768E-04
              -6.1056604038861725E-03
              -2.5042729660895982E-03
               3.0127273032786958E-03
              -2.8234155031936535E-03
               4.6387702069576814E-03
              -1.9916863457974860E-03
              -9.3456497120082901E-03
              -3.0073227139288355E-03
               4.3139225086494043E-04
              -5.0128260264596840E-03
               1.6477745331974204E-02
              -7.5040730754245650E-03
               2.8985590973268490E-03
              -1.6012549632697218E-02
               1.0458452101671983E-02
               1.8775968740743991E-03
              -4.2321920845904805E-03
              -1.7583605373421934E-03
               3.9549188106949920E-03
               1.4427056569410550E-03
               1.7066072918653741E-03
               6.5023763514383435E-03
              -3.0507534443482308E-03
               7.9236078795662402E-03
               3.0720522049865560E-02
               1.8660002756092236E-03
               1.5156783492711235E-02
               5.5774013528320978E-03
              -1.5222618647135456E-03
              -3.7107328182029429E-04
              -6.2130517732065698E-03
               7.5153444318910162E-03
              -2.1668393981360474E-03
               3.8344065878462945E-03
               2.3549018521379526E-03
              -8.0487490065211213E-03
               3.3428140325732713E-03
               1.5481639349398039E-03
               3.5167294755245929E-03
               4.3664106269045485E-03
              -1.3708774346545699E-03
               4.4983720302151338E-03
              -1.0423760151057827E-02
               1.1104900206277274E-02
               8.2391334040659561E-04
               2.4326579048012499E-03
              -7.0482094209851952E-04
               3.4403978690427878E-03
               3.9128921253333976E-03
               1.0276576383533445E-03
              -8.2723367682671686E-03
               5.8325497555896033E-03
               5.8136761693518540E-03
              -7.8336806978873182E-03
              -3.7270150891726629E-03
               4.8710827017837549E-03
               1.7628395259204784E-03
               1.2937421065977579E-02
              -4.3845319743118531E-03
              -3.7735555025984217E-03
              -4.3755097055333614E-03
              -4.7068577141931092E-03
               1.7771781676057820E-03
               6.4318584084682032E-03
              -2.3873861093905895E-03
              -3.2429991614497666E-03
              -2.7140744526903543E-03
               7.9521048157341653E-05
              -8.0903527599123523E-04
              -6.4359107086044871E-03
              -9.0680286795057907E-03
               4.5973997686748190E-04
              -5.7026131508883873E-03
              -2.8051948076660786E-03
               4.3071112587058898E-03
               1.6358424620187024E-04
               3.1209723042959605E-03
              -3.8505464257593664E-03
               3.3217957279656819E-03
               6.2079396949082421E-03
               3.4179467355681748E-03
               1.2330892532393172E-03
               2.5193703215229870E-03
               2.7574818310749431E-04
              -3.0651620553708509E-03
               1.2678114609486881E-03
               4.8433664233893114E-03
               4.0123224407124239E-05
              -2.7673722875870286E-03
               4.9989181048293145E-04
               2.2876236138096675E-03
              -2.7369188224719977E-03
               1.2260034260746842E-03
               6.0361234533008326E-03
              -7.6983551108233943E-03
               1.7372616102821650E-03
               1.0092943747286042E-02
              -1.4299634674222509E-03
               1.9948582150416727E-04
               1.9720508135013096E-03
               1.2626404557933358E-03
              -5.2516107786211757E-03
               4.9034549884090549E-03
              -2.5598457085692595E-03
              -5.1254200031047399E-03
              -8.8736092971099495E-04
              -8.9105056045629531E-04
               1.0612356142174907E-03
               2.9417687687243788E-03
              -2.6878900402078280E-03
              -3.2511664693179792E-03
               1.1490033466671976E-03
              -6.0714897488591572E-03
               2.6335617327732756E-03
              -2.6475418437867633E-03
               5.2835314504684492E-03
               4.5883090493992638E-03
               2.6470394147667584E-05
              -1.6593178311057157E-03
               2.3472231759179324E-03
               9.0825371850321926E-03
               7.4946614711529089E-03
              -1.7334325074510163E-02
               9.6535356024393269E-04
              -3.7700469519117204E-03
               3.8455902585426702E-03
              -1.4365891640492150E-03
              -1.6015191283367141E-03
               4.3351434176663102E-04
              -1.1921639958176690E-03
              -6.9779946903042542E-03
              -8.1341087223391270E-03
              -7.2036889358025030E-03
               6.1614329368714586E-03
               3.5877402202025149E-03
              -1.3580061774215669E-03
              -3.1640285862629008E-03
              -1.4158478224819803E-03
              -7.7054984482049071E-03
              -9.2971790911236226E-04
               3.6529444128645910E-03
               2.9671164548482980E-03
              -3.8562019850756448E-03
               6.0379058846794361E-03
              -3.2549419162107253E-03
               4.5082154286590756E-03
              -7.3815875637471323E-04
              -6.1383867856093441E-03
               5.2766803047612663E-03
              -2.5278532334431248E-04
               3.1338575766868540E-04
              -4.4175496215000749E-04
              -1.4101068175490312E-03
              -3.1442450209269684E-03
              -2.0618582622983851E-04
               2.6806037075570929E-03
              -8.7078095443176694E-04
              -1.5588141813694695E-03
               5.9976383650979883E-04
               5.5019951719285452E-03
               1.4528417152387110E-03
              -4.6733679530103255E-03
              -2.8652854941891177E-04
               3.5505131585130503E-03
               3.1442521764509963E-03
              -3.4660897364351747E-04
              -2.6151169158243467E-03
              -4.1733084486077687E-03
               1.5911750028422831E-03
              -1.2319964132728545E-03
               1.0736612328953294E-03
               3.5932947076222882E-04
               1.4932883440674741E-03
               1.4965287457814830E-03
               5.4131526553490164E-03
              -2.3846715677168905E-03
              -2.7880101298845264E-03
              -1.3895582917730195E-03
               7.6127197747573065E-03
              -4.3273690276260667E-04
               3.0168391007812270E-03
              -6.2139741822680910E-03
               2.8111522882952669E-04
               1.0324241192223775E-02
              -6.3136721316497382E-03
              -4.7156488571694823E-03
              -1.3749262971041527E-02
               1.1479527988507154E-02
               1.2105280477315962E-02
               1.2021759058185924E-03
              -4.7351579582328683E-03
              -1.3639041996719736E-03
              -8.2638024793094144E-04
               2.1919613501782086E-03
               1.0917258202759718E-02
              -8.4611908633725928E-04
               3.4902349381650901E-04
               3.6397827897275271E-03
              -4.4696097121206561E-03
               6.0313581207537019E-03
               8.9810328574299880E-03
               6.9643237277209179E-03
               1.5769553182937602E-03
              -8.2096446124727239E-03
              -6.3147479555481054E-04
              -6.4482588228415641E-03
               5.9267635895700384E-03
              -3.5261223830511598E-03
              -1.7784839771745541E-03
              -1.7459789843965459E-03
               3.0164650181560733E-04
              -1.6771688648190477E-03
              -1.1465360933720289E-03
              -2.7267002368683928E-03
               6.0043387722096466E-03
               7.7188821082590205E-03
              -2.0136604539237211E-03
               3.2914057153057884E-03
               4.7805273548982858E-03
               3.0586270008089462E-03
              -3.1570850614304207E-03
              -6.9912323951985406E-03
               1.1215774148725225E-03
              -1.4859497386846758E-03
               2.5004489445091112E-04
               1.4713130205553111E-03
               5.4505084227863426E-04
               9.0273592361907358E-04
               5.7105860277940510E-04
               4.4057951253793342E-03
              -2.9279342523201800E-03
              -9.7407331233044883E-05
               9.4670089388197275E-04
              -1.8523442448415753E-03
               7.5686381755699474E-04
              -1.9047262261994075E-03
               7.1391721075011625E-03
               5.5382196646291057E-03
              -2.3528326687320645E-03
              -2.2910583851319371E-03
              -3.0227023772070845E-03
              -1.4623513615298549E-03
               4.9974849409947213E-03
              -1.3795243434712571E-03
               4.1590876921319417E-03
               5.3289668739925035E-03
               2.4324741195293886E-03
              -6.2282195739434233E-03
               1.9491562454335145E-03
              -9.4530575319973719E-04
               2.2784316458352980E-03
               6.3128150170413486E-04
               4.1027090572055029E-03
               5.3712189589260435E-04
              -1.0322362619320769E-03
               5.9001671013946353E-03
              -1.5949107353898075E-02
               1.6397468682672160E-02
              -5.6329435926317914E-03
              -5.4623184306004761E-03
              -4.9933771924618835E-03
               8.3056707244618007E-04
               3.9109623103172810E-03
              -2.2039116992096010E-03
               1.7774664108247608E-03
               3.8275239100981182E-03
              -5.0044128161935483E-03
              -3.7953311759424558E-03
               9.2832902509781042E-03
              -9.8735308378450314E-03
              -5.9392066246264103E-03
               2.7899072256739404E-03
               2.4754482198733356E-03
               3.3720114679261625E-03
              -9.8579682254190566E-03
               3.2503507086499455E-03
              -2.3997603429215843E-03
              -2.7415071043045782E-03
               3.2542709819793868E-03
               2.0539306975731471E-03
              -1.4002600147708911E-03
              -5.1177710664721866E-04
              -5.1776185379686064E-03
               9.9448420447641357E-03
              -4.5861209936725600E-03
               3.9769502566390337E-03
              -3.7078952197744861E-03
               1.4534433169224310E-03
               2.4621625814726829E-03
               5.1360067103079009E-04
              -1.8484051480841465E-03
              -3.4412823581649273E-03
               1.5580980167364561E-03
               6.3342278837055233E-03
               3.9335025142164500E-04
              -3.2641645894542423E-03
              -9.3294715416548171E-03
               3.9333501426435703E-04
               1.5205706342772023E-03
               9.2637371708988446E-05
               4.1323945026895594E-03
              -3.1560705361921280E-03
               5.6226924767434523E-03
               2.9626414547819528E-03
              -8.4719236570616335E-03
              -6.5466806248044079E-03
              -1.5728781423103052E-03
              -4.0767701405762169E-03
               2.8391445358830307E-03
              -9.4263256343075116E-04
              -5.4723826928225030E-03
              -2.7856204459864782E-03
               9.9228695088718604E-03
               3.3685283416621560E-03
               7.1282946037191514E-03
               1.2770591605922211E-05
               3.1226452779844968E-03
              -1.0757438501460847E-03
              -5.7234179537043713E-03
               1.6201792397299282E-03
               3.2609858757641206E-03
              -2.2893101138245810E-03
               2.2218718473775759E-03
               1.6951143725775202E-03
              -2.5971628424738082E-03
               4.5372036627695978E-04
              -1.8114233796246461E-03
              -1.1094937870790286E-02
               5.3854976238050627E-03
               5.5241300813139754E-04
               9.7408646184996839E-03
               1.0679463008193262E-03
              -3.3730221154375977E-03
         &END THERMOSTAT_ENERGY
         &RNG_INIT
Wiener process for Thermostat # 1        1 F T T   2.3618670345061391E-01        1935899135.0        3080338053.0         682668229.0          19706131.0         517119713.0        3313480422.0             12345.0             12345.0             12345.0             12345.0             12345.0             12345.0             12345.0             12345.0             12345.0             12345.0             12345.0             12345.0
Wiener process for Thermostat # 2        1 F T T  -1.6734974504590521E+00        3957440718.0        3551167598.0        3844432424.0         319628627.0        2394950763.0        3040573613.0        3692455944.0        1366884236.0        2968912127.0         335948734.0        4161675175.0         475798818.0        3692455944.0        1366884236.0        2968912127.0         335948734.0        4161675175.0         475798818.0
Wiener process for Thermostat # 3        1 F T T  -4.1089960405161025E-01         103243118.0         918080487.0        1240818166.0        2434303038.0         818909518.0        2816986690.0        1015873554.0        1310354410.0        2249465273.0         994084013.0        2912484720.0        3876682925.0        1015873554.0        1310354410.0        2249465273.0         994084013.0        2912484720.0        3876682925.0
Wiener process for Thermostat # 4        1 F T T   1.1928142965850277E+00         509639352.0        3404281231.0        1395594055.0        2614958971.0         545139151.0        2381272251.0        2338701263.0        1119171942.0        2570676563.0         317077452.0        3194180850.0         618832124.0        2338701263.0        1119171942.0        2570676563.0         317077452.0        3194180850.0         618832124.0
Wiener process for Thermostat # 5        1 F T T  -7.5007721996167498E-01        3833968159.0        1638833895.0        1508332373.0        3074404069.0         732841824.0          47285157.0        1597262096.0        3906379055.0        3312112953.0        1016013135.0        4099474108.0         275305423.0        1597262096.0        3906379055.0        3312112953.0        1016013135.0        4099474108.0         275305423.0
Wiener process for Thermostat # 6        1 F T T  -2.6291692692048291E-01        1656873006.0        3295030594.0         827492222.0        2052010585.0        1386585599.0         522147379.0          97147054.0        3131372450.0         829345164.0        3691032523.0        3006063034.0        4259826321.0          97147054.0        3131372450.0         829345164.0        3691032523.0        3006063034.0        4259826321.0
Wiener process for Thermostat # 7        1 F T T   6.4066344680431464E-01        1822745162.0        1843521280.0        4271037390.0        1394500470.0        3317609620.0        2325799825.0         796079799.0        2105258207.0         955365076.0        2923159030.0        4116632677.0        3067683584.0         796079799.0        2105258207.0         955365076.0        2923159030.0        4116632677.0        3067683584.0
Wiener process for Thermostat # 8        1 F T T  -7.5612577179608875E-01        1240124796.0         857941258.0        4213409599.0         823308722.0        3502408938.0        3082359483.0        3281794178.0        2616230133.0        1457051261.0        2762791137.0        2480527362.0        2282316169.0        3281794178.0        2616230133.0        1457051261.0        2762791137.0        2480527362.0        2282316169.0
Wiener process for Thermostat # 9        1 F T T   1.8915528192972031E+00          22827244.0         326611995.0        3738255671.0        4022819142.0        2105946486.0        2590996293.0        3777646647.0        1837464056.0        4204654757.0         664239048.0        4190510072.0        2959195122.0        3777646647.0        1837464056.0        4204654757.0         664239048.0        4190510072.0        2959195122.0
Wiener process for Thermostat # 10       1 F T T   2.0700220050147049E+00         132487144.0        1796747494.0        3423748727.0        1522402181.0        3208828022.0         565943726.0        4215590817.0        3862461878.0        1087200967.0        1544910132.0         936383720.0        1611370123.0        4215590817.0        3862461878.0        1087200967.0        1544910132.0         936383720.0        1611370123.0
Wiener process for Thermostat # 11       1 F T T   2.1323553816971000E-01         513822154.0        1209659296.0        2183469411.0         637027977.0        3038027171.0        2957022555.0        1683636369.0         362165168.0         814316280.0         869382050.0         980203903.0        2062101717.0        1683636369.0         362165168.0         814316280.0         869382050.0         980203903.0        2062101717.0
Wiener process for Thermostat # 12       1 F T T  -9.1734901952099479E-01        1796342452.0        2656542036.0        1009886957.0        1359644042.0        1957681488.0        2218770508.0         272317999.0         166758548.0         310112982.0         201045826.0        1680231254.0         118290799.0         272317999.0         166758548.0         310112982.0         201045826.0        1680231254.0         118290799.0
Wiener process for Thermostat # 13       1 F T T  -1.2725617723776657E+00        3697924450.0         894804474.0        2522641687.0        4163138712.0         175765073.0        2733136311.0        2245755202.0        1652682525.0        2865544364.0         721509566.0         209733568.0         592362218.0        2245755202.0        1652682525.0        2865544364.0         721509566.0         209733568.0         592362218.0