 # Version information for this restart file 
 # current date 2024-11-22 16:10:21.002
 # current working dir /scratch/work/courses/CHEM-GA-2671-2024fa/students/ra3194/comp-lab-class-2024/Week12-IntroAIMD/Runs/Water
 # Program compiled at                              Sat Dec 12 18:27:15 EST 2020
 # Program compiled on                                         cs001.nyu.cluster
 # Program compiled for                                                nyu-intel
 # Source code revision number                                       git:8c64c6e
 &GLOBAL
   PRINT_LEVEL  LOW
   PROJECT_NAME water_aimd_1ns_every0.5fs
   RUN_TYPE  MD
   WALLTIME 21600
 &END GLOBAL
 &MOTION
   &GEO_OPT
     OPTIMIZER  BFGS
     MAX_ITER  100
     MAX_DR     3.0000000000000001E-03
     &BFGS
     &END BFGS
   &END GEO_OPT
   &MD
     ENSEMBLE  NVT
     STEPS  1000
     TIMESTEP     4.9999999999999994E-01
     STEP_START_VAL  998
     TIME_START_VAL     4.9899999999999631E+02
     ECONS_START_VAL    -1.1023558357480233E+03
     TEMPERATURE     3.0000000000000000E+02
     &THERMOSTAT
       TYPE  GLE
       REGION  MASSIVE
       &GLE
         NDIM  5
         A_SCALE     1.0000000000000000E+00
         A_LIST     1.8595758612559999E+02    2.7263853498399998E-01    1.1526100454610001E+01   -3.6414578262600003E+01 \
             2.3173375816020001E+02
         A_LIST    -2.7809524712060002E-01    8.5951591808710006E-05    7.2189048017650004E-01   -1.9844539343859999E-01 \
             4.2409257583420001E-01
         A_LIST    -1.4825808131210000E+01   -7.2189048017650004E-01    1.3590902121280000E+00    5.1498896280349999E+00 \
            -9.9949268450990001E+00
         A_LIST    -1.0372189126880000E+01    1.9844539343859999E-01   -5.1498896280349999E+00    2.6661910891169999E+01 \
             1.1507715495310000E+01
         A_LIST     2.1801346360420001E+02   -4.2409257583420001E-01    9.9949268450990001E+00   -1.1507715495310000E+01 \
             3.0958394565589998E+02
         &THERMOSTAT_ENERGY
              -3.8209272049863530E-03
              -2.5705804079489416E-04
              -4.6678852516580742E-04
               8.6146618630655800E-03
              -6.1932267154204352E-03
               5.9541203974989359E-03
               1.2745993586819216E-03
              -7.2674832568920969E-03
               7.5021162545103343E-03
               4.1994463093089525E-03
               9.0051562765586946E-03
              -4.2480315742727676E-03
              -5.0524439382369744E-03
              -5.5934086741013219E-03
              -7.5238554655224731E-04
              -4.9079295461223263E-03
               1.1621187226874623E-02
              -3.7348206582044560E-03
               6.1883195379640330E-03
              -6.3209876441607587E-03
               5.4457495015959318E-04
               1.5163278106297960E-03
              -1.4816076566098765E-03
               1.0656819207129275E-03
              -4.4025936857938911E-03
               2.3088043745654991E-03
               1.9004262174574075E-03
               2.4220286310106193E-03
               4.4651766831594530E-03
              -1.7877833210149725E-03
              -6.1754786223091815E-03
               1.5875633962172530E-04
               5.2266745720572604E-05
               4.2400407057742928E-03
              -1.1570523746777996E-02
               9.3397157295686539E-03
              -1.1009864850045532E-03
               4.6844799491780654E-04
              -1.8583701310175913E-03
              -4.3493944520749915E-03
              -3.9699105652913277E-03
               2.0176646387176323E-03
               2.3431866816956025E-03
               7.2031045383671184E-03
              -4.6461594750822526E-03
               3.7374523499278714E-03
              -2.4519642237031975E-03
               4.1755339633237050E-03
              -1.0309177428772789E-03
              -5.2557991041933157E-03
               2.6748598686001357E-03
              -5.0082993002691124E-03
              -2.5167260117110518E-03
               7.7429381982154575E-03
              -5.2290858589333234E-03
               2.7018411345124133E-03
              -1.0284283385811569E-03
              -1.8576788472432650E-04
              -1.4579921938055337E-03
               5.6611524889349308E-03
               8.8235556578108261E-04
              -1.6626058893098273E-03
               1.4103451694128846E-02
              -4.5557267021472687E-03
               6.9845943199718023E-04
               2.6925479399825952E-05
              -1.0144444513818116E-02
               1.5380752832472114E-03
               1.4660193545282954E-02
               1.1606555784932104E-03
              -7.0048605703032919E-04
              -9.5247093125750328E-03
              -9.0888908015281859E-04
              -1.3809596821438193E-03
              -2.7577315570061463E-03
              -1.0022792808639753E-02
               3.2367258873852080E-03
               7.1846154548156312E-04
               9.0858001199848552E-03
              -9.2807354941484808E-03
               9.5402559968537515E-03
              -1.0268547558585431E-03
               1.1425922654677875E-04
              -1.8226906157674683E-03
               9.1671515273421516E-04
               5.9578136967683654E-03
              -5.4353142530930024E-05
              -1.2656985258482259E-03
               2.9927135131418083E-03
              -8.6859221578896651E-04
               1.9871418410537618E-03
              -7.5791055164800671E-03
               1.1910430175534981E-03
              -3.8118195966919820E-03
              -9.4219747746037176E-03
               3.7272310873737681E-03
               8.4621830494771913E-03
              -2.0387484504924029E-03
               4.1867324866211864E-03
               2.7239499268295295E-04
              -2.5885866975572450E-03
              -7.4396857618877965E-03
              -1.1424167209109514E-03
              -4.2024405368738882E-03
               5.9107253495413303E-03
               4.4408219315008671E-03
               1.4962172042734018E-03
               7.7406175028622685E-04
               2.7416836754115851E-03
              -6.7744489562863268E-03
               2.4071033384265536E-03
              -7.3244052622459222E-04
               2.5249881747995344E-03
               6.0341972951638047E-03
               3.2719799216874633E-03
               4.7050204964961383E-03
              -1.8034435815718657E-02
               4.8586190512599761E-03
               1.7442661499399352E-03
               3.8560657579753952E-03
               4.2187804700128386E-03
               1.4879858917888132E-03
              -2.4474742893368928E-03
              -1.7142413308631665E-03
              -3.5284825310831344E-03
              -1.4216201120983492E-03
               1.7483350589593556E-03
              -6.6473100721119887E-04
              -9.7438048871029365E-04
              -4.8847532990279564E-03
              -3.6202570799363174E-04
               6.2938421478725085E-03
              -5.4496956676781212E-03
               8.9855360343558729E-03
               3.8942641366241168E-04
               1.4409907049427921E-03
              -2.6535025512349772E-03
              -5.8628259100739445E-03
               3.8312982243072086E-03
              -9.0914944109508969E-03
               5.7868158415408256E-03
              -1.8251008044939873E-03
               1.8598855080420792E-02
              -4.3675749824866467E-03
              -1.6757161899573754E-03
               2.4314242466420729E-04
               7.7503027389484508E-03
               9.4512573949562728E-04
               7.0742187810302157E-04
              -3.9777180038471317E-03
              -8.4312652358494236E-03
               1.8617072017427980E-03
               2.1248396751955196E-03
              -1.8371725425468514E-03
               2.2517078553405102E-03
               1.0114833257447262E-03
               6.0423392817056309E-03
               1.7782931669400669E-04
              -4.9123928634471105E-03
               2.7717539912498097E-03
              -6.5347149522833091E-03
              -2.8862098445711138E-03
              -2.2601844519537775E-03
               4.4211421384672631E-04
               3.4130956727438989E-03
               5.6205643828601479E-03
               4.0667592859416320E-03
              -8.3018144348228975E-03
              -1.1179041902828039E-02
               7.9711487235561169E-03
               4.4531614842885099E-04
              -3.1089600756544133E-03
              -6.2796116049530738E-04
               3.1151058309485591E-04
              -5.5125610054215582E-03
               2.6744657832524520E-03
               7.9965138130661743E-04
               4.5929805368678089E-03
              -2.7788237467475116E-03
               3.8306143295706841E-03
              -3.6313528543543577E-03
               1.9288530983103736E-03
               4.2382872854345895E-03
              -8.4276874071037618E-03
               8.2367605399027450E-03
              -4.2545005550403484E-03
              -4.5961476931169216E-05
              -3.7692970471525080E-04
              -3.5626347565862648E-03
              -1.0493466247091156E-03
               1.8119425619325508E-03
              -3.1977648484231235E-03
              -5.3167484121023319E-03
               3.8951932559520060E-03
               6.1936919959288805E-03
              -2.4496336618099845E-03
              -5.6679026023968779E-03
               2.7939590932506827E-03
              -2.2160994057428733E-03
              -9.5866724118252519E-04
               1.9440475191573165E-03
              -7.0697390673284824E-03
               1.1328504046697260E-02
              -2.0081420545428126E-03
              -2.8208023690009182E-03
              -3.0719349817677488E-03
              -1.6416399526496630E-03
               2.3901986303024388E-03
               3.7703886577980370E-04
               1.3263304115919154E-03
               4.9387104515934395E-03
              -5.3972431294856344E-04
               4.0871135489660062E-03
              -1.0878891877285067E-02
               1.0868213269203536E-03
               4.1381046960027304E-03
              -4.0939358973814989E-03
               5.4672110072548526E-03
               2.6668899006630385E-04
              -6.9987190802558294E-03
              -2.6750713900527395E-03
               2.7685743091347779E-03
              -2.4832021079880277E-03
               5.9947975679893817E-03
              -1.1482338617707953E-04
              -1.1324659038472523E-03
               3.1549834151131414E-03
               2.1570629150934892E-03
              -5.3971593088918812E-03
               1.3048762174003943E-03
              -6.7219789603041955E-03
               2.1052279660749261E-03
               2.8102867179533343E-03
              -4.3627621986375952E-03
               3.6592866760782094E-03
               5.2139586744479711E-04
              -2.2905135524159846E-03
               1.5768971076404426E-03
               6.5899403197132219E-03
               1.3661284710368730E-03
               4.9638849784447317E-04
              -9.8600403580353865E-03
               4.7182431170713218E-03
               1.1694127158004600E-03
              -2.1001058511794504E-03
               2.3732054254124225E-03
               6.3287465703926208E-03
              -6.2835699955172825E-03
              -6.1056993334189221E-04
               1.0297980645828347E-03
              -5.8312723470820124E-04
              -1.7766254470239325E-04
              -6.1498893735863584E-03
              -3.7377528910736368E-03
               3.5287795553245755E-03
              -2.6722554567926867E-03
               1.0172665889023718E-02
              -3.3127593637413489E-03
               2.9652011857253745E-03
              -8.6515450042402783E-03
               9.1963778234562706E-03
               2.6663998072142762E-03
               3.1093298741126582E-03
               1.5552785660385123E-03
               8.4582840228810425E-03
              -4.0123473297956815E-03
              -2.0806699733391244E-03
              -2.7928983080858028E-03
              -6.5013874078154489E-03
               5.2971012486661131E-03
              -3.4121270257572649E-03
              -3.2265566314033955E-03
               1.5627132977959223E-03
               7.5830762256199682E-03
               2.2208843218038303E-03
               4.4650648924858256E-04
              -2.1754116662087451E-02
               1.3991745597768194E-02
              -3.8884962738420198E-03
               6.2336645453633221E-03
              -4.1693393269593582E-03
               2.7126001415543363E-03
               1.2474845144632164E-02
              -1.4515219561427714E-03
              -9.9144209398461594E-03
              -5.6200799469718369E-03
               3.1939984538934220E-03
              -5.9343269326634467E-03
              -1.8586117793092146E-03
              -4.3756910071262979E-03
               6.2380542999292154E-04
               4.0493528867117622E-03
               8.9531644171021493E-03
              -3.4411158901243148E-03
              -5.4944499903217378E-04
               5.2659408123378161E-03
              -5.2504443122527973E-03
              -1.4456016713076927E-03
              -2.6250651337055156E-03
              -7.3536575731817050E-04
              -2.2342727686295713E-03
               7.3272216214388328E-03
               9.7247595697291236E-04
              -1.7738712334711576E-03
               4.9731887838483143E-03
              -8.6061292750547400E-03
               2.9878804347590339E-03
              -2.2514333351828200E-03
              -2.4757216740772885E-03
               1.1096736201688965E-02
              -5.1013805156046293E-03
              -7.9134940333780469E-03
               2.9545316021180068E-03
               7.5752660491752574E-03
               1.8092601449148735E-03
               6.6611579939077547E-03
               2.4288990675200755E-03
               1.6710043135248387E-03
              -2.9145105749158505E-03
              -6.0841442311121543E-03
               8.6786309060198161E-03
              -6.6122965193267519E-03
              -7.9793264239458473E-03
               1.0651207841549952E-02
              -5.2281995195810694E-03
               2.1261304101192267E-03
               2.5666744746303655E-03
               6.1618295085746821E-03
              -3.9095538343417464E-03
              -4.3552581814054157E-03
              -6.2231619147304681E-03
              -8.7201152500464493E-03
               1.0543450290151196E-02
              -1.2676587223613238E-03
               1.9973589881739163E-03
               1.2186061946401830E-03
               1.7158315834615433E-02
               1.2146148334074669E-03
              -1.0434554052675302E-02
               4.3082001724572706E-03
               7.7432636159944874E-03
              -8.9497385344918801E-03
               7.2564112574577053E-04
               1.9551115121952344E-03
              -1.1146488338835353E-03
              -1.0924256973298177E-02
               4.4244835042046605E-03
              -1.4151809688182052E-03
               4.2497995446748116E-03
               1.5234392308096211E-04
              -2.9410270113624853E-03
               1.9496827403063959E-03
              -7.5327820381122807E-03
               2.1795218817403793E-03
              -6.6023873032174793E-03
               1.0413359526150707E-02
               1.1469487352099316E-03
              -9.9252285287353744E-04
              -4.4756102063958020E-03
               6.5899294836959449E-03
              -7.1591455327146781E-04
              -9.3055068937156313E-05
              -1.0991329824645913E-02
              -2.7827463952528448E-03
               4.0449108323941199E-05
               1.3294513019113023E-02
               3.6243328894848942E-03
              -5.3873016538539696E-04
              -3.8743530460238519E-03
              -2.5353030789871987E-05
               2.3582720501096450E-03
              -2.0476028761074361E-03
              -7.2637135722475217E-03
              -5.9678608677848520E-03
               8.1190170876043431E-03
              -1.0156121429982996E-02
               8.8325161916076311E-03
               3.7325800810739853E-03
              -1.1112938243555614E-03
               2.6643299456918378E-05
               1.4211970715404124E-03
               1.8004749126755839E-05
               1.5614606656368142E-02
              -3.5227279803017328E-03
              -1.4726635880521819E-02
               1.0660912450937315E-02
              -4.6074420394506960E-03
              -5.3868188936519283E-03
              -3.0631440269328885E-03
              -1.0575489508105312E-03
              -6.9306857388638319E-03
               1.0705907512203010E-02
              -5.0320839016322171E-04
              -1.1736491523514690E-03
              -5.5804126750908113E-03
               1.6020872936388098E-03
              -2.6080588013011785E-03
              -8.1897492112867039E-04
               4.1083468735916874E-03
              -1.0017034646710729E-02
               2.1941046026347443E-03
               1.1683242426449705E-02
              -9.4956810042607937E-03
               9.0572233147440135E-03
               7.7327083500927322E-03
              -4.2133351316264427E-03
               2.5485825734891405E-03
               7.4539348571664174E-03
              -9.2285758886498630E-03
               3.1697011040955876E-03
               6.2284280056224765E-04
               5.9032618433972964E-04
              -2.2479934068281074E-03
               4.2966584313039345E-03
              -6.0616474308024032E-03
              -3.2754608386463767E-03
               5.1028368652402340E-03
              -2.2610981346030271E-03
              -3.4250338413370457E-03
               1.0518279857271690E-02
              -1.9491555944030352E-03
               3.0702086718892548E-03
              -1.1389796380278580E-04
               3.3515231905060423E-03
              -3.5777976522462620E-04
              -1.8538571203888436E-03
              -6.6329407866200117E-03
               4.9865687188787675E-03
              -2.3284139366391496E-03
               4.7981126220760146E-04
               7.9890767199427351E-03
              -9.0549707740456616E-03
               8.0610172950889140E-05
              -8.9284860479693802E-04
               2.8688941969299071E-03
              -1.0071250579477657E-02
               1.3858485873495230E-03
               4.3344769642721798E-03
               6.9526283388226130E-04
               6.3633404526493688E-03
              -2.8212127688114989E-03
              -8.7507155667472455E-03
               3.6279028730702824E-03
               4.9486005019933896E-03
              -3.2466280963880500E-03
              -6.1440675905916177E-03
               1.5842545512928998E-03
               4.5402712537507724E-03
               3.2822432592055566E-03
              -9.0899972921506416E-04
              -7.6208120796852994E-04
              -2.2074948736749938E-03
               5.0180446124557963E-03
              -2.8721698316661781E-03
              -5.0972878441249954E-03
              -3.3860656987268005E-03
               1.5207486974660442E-02
              -1.8804487329949571E-03
              -1.0567712273629553E-02
              -4.9265319992613721E-03
               4.3622688328615261E-03
              -5.6682558249527074E-03
               2.8568333870089974E-03
              -1.0047989102022754E-03
               5.8045916553000993E-03
               7.6570594150736082E-03
              -2.9325041531584341E-03
              -1.4476288933734961E-03
              -3.1357773606137751E-03
               1.9835273791862806E-03
               2.5830869315340739E-03
               7.8519906827749543E-03
              -3.0751062950823693E-03
              -2.7337346221601448E-03
               5.1996017747509985E-03
               5.0780155996831200E-03
               5.9496791494612032E-03
               1.7363555074663248E-03
              -3.0481638034275198E-03
               4.5226244676505436E-03
              -6.1966664916816658E-03
               3.8569610419187739E-03
               1.4954853702528494E-03
               4.4784749383441494E-03
              -7.4170156684990147E-03
              -2.0190457900483476E-03
              -1.5020021276904089E-03
              -4.0100713507985435E-03
              -1.8981304993276455E-03
              -1.7525429162789793E-03
              -1.7202557693081970E-03
              -1.6457761150768238E-03
               8.8884642303669074E-04
               1.2685852997179704E-02
              -6.5330053647590708E-03
               2.6040273516206645E-03
               1.3272207285409926E-03
               4.2950166453725595E-04
               2.1413588792903926E-03
               3.5490415020271214E-03
               3.5996570304216314E-03
               2.9625054028614605E-05
              -5.7367684999822368E-03
              -1.3665741293923263E-04
               1.0497330593054106E-03
              -4.0197919294733871E-03
               1.8114112260201923E-03
               2.8645168776888397E-03
               2.9294595486190670E-03
              -1.0046636185722376E-04
               9.8349260358681278E-04
               1.1274651585802315E-02
              -1.6912868057114325E-02
               5.0168360582994790E-04
              -6.1661203833392848E-04
               1.6073497414321525E-03
              -9.1036588608281160E-03
               4.5390683958772410E-03
               4.8689639199029485E-03
              -1.4813045036622405E-03
               6.4037118181778279E-03
              -1.3477585740559498E-02
              -4.9635398506696592E-03
               8.7360575468209672E-03
               2.3471362916566377E-03
               2.8092912825519181E-04
              -6.9509065131923495E-03
              -6.4835006081705353E-03
               4.9761212899968807E-03
              -2.4931744506140273E-03
              -5.5013456523858341E-03
               1.6066054137697258E-03
              -3.8330431601313417E-03
              -1.4267491284021855E-03
               3.8338714124803676E-03
               4.4359127852528473E-03
               8.1175963889912578E-04
              -2.4122060171735708E-03
              -9.2051908395930308E-03
              -5.3215087884650946E-04
              -3.7885825540099256E-03
               1.3572481995422160E-03
              -7.6983551127239157E-04
               3.8017700996648704E-03
               2.8341970246656776E-03
              -1.5584426228714926E-03
               7.3066608316572036E-03
               3.3642602641535953E-03
              -6.7488589901438705E-03
              -1.0675419102249189E-03
               3.6488232800635798E-03
              -4.1358559921875317E-03
              -2.7581028521983498E-04
               6.5932923884657558E-03
               1.3520627019123720E-03
              -1.2944379285247930E-02
               5.4848341976042022E-03
               3.6986417866954149E-03
              -2.5834763593944494E-03
               7.8330611733487944E-04
              -1.1732763440846273E-03
              -1.2067150234447641E-03
              -1.8262841911638702E-03
               1.0837560613670104E-02
              -3.0042701306032963E-03
               8.9375355886212229E-03
               2.6603241922372274E-03
              -1.3468778133024115E-03
              -3.5015318315274636E-03
              -4.6841907700781180E-03
              -5.9713895558301316E-03
              -4.6036734064173763E-04
               1.0360455480697511E-02
               3.9787660498850960E-03
              -3.8191803574134813E-03
               2.1994274353968864E-03
         &END THERMOSTAT_ENERGY
         &RNG_INIT
Wiener process for Thermostat # 1        1 F T T   3.1802742257825889E-01        2117445822.0        1784117129.0         893083395.0        1783466761.0        2882189077.0        2868249081.0             12345.0             12345.0             12345.0             12345.0             12345.0             12345.0             12345.0             12345.0             12345.0             12345.0             12345.0             12345.0
Wiener process for Thermostat # 2        1 F T T  -4.9187843838419820E-01        2379912731.0        2380235040.0        3724452929.0        2769321336.0        2129722131.0        3387212259.0        3692455944.0        1366884236.0        2968912127.0         335948734.0        4161675175.0         475798818.0        3692455944.0        1366884236.0        2968912127.0         335948734.0        4161675175.0         475798818.0
Wiener process for Thermostat # 3        1 F T T   6.4948767519944051E-01          33612170.0        3006684264.0         109043558.0         431664488.0        3891774789.0         520519407.0        1015873554.0        1310354410.0        2249465273.0         994084013.0        2912484720.0        3876682925.0        1015873554.0        1310354410.0        2249465273.0         994084013.0        2912484720.0        3876682925.0
Wiener process for Thermostat # 4        1 F T T   6.5495713249457066E-01        1322773627.0        2995010694.0         666955602.0        2954065329.0        4169120949.0        1026813917.0        2338701263.0        1119171942.0        2570676563.0         317077452.0        3194180850.0         618832124.0        2338701263.0        1119171942.0        2570676563.0         317077452.0        3194180850.0         618832124.0
Wiener process for Thermostat # 5        1 F T T  -1.6296518629128045E+00        3048643116.0        4076318567.0        3993806380.0        3972767538.0        2322199585.0        4152730064.0        1597262096.0        3906379055.0        3312112953.0        1016013135.0        4099474108.0         275305423.0        1597262096.0        3906379055.0        3312112953.0        1016013135.0        4099474108.0         275305423.0
Wiener process for Thermostat # 6        1 F T T  -2.3710733378222193E-01        1086340432.0        2038235796.0        4069556951.0        2609858004.0        1025697472.0        3599232891.0          97147054.0        3131372450.0         829345164.0        3691032523.0        3006063034.0        4259826321.0          97147054.0        3131372450.0         829345164.0        3691032523.0        3006063034.0        4259826321.0
Wiener process for Thermostat # 7        1 F T T  -1.8961991930458864E+00         209409846.0        3649994700.0        1850368427.0        2938398858.0        2241374859.0        3227190688.0         796079799.0        2105258207.0         955365076.0        2923159030.0        4116632677.0        3067683584.0         796079799.0        2105258207.0         955365076.0        2923159030.0        4116632677.0        3067683584.0
Wiener process for Thermostat # 8        1 F T T   1.4417068949246725E-01        1260099797.0        1928451225.0        3515270001.0        1578744161.0        3974765221.0        2231842947.0        3281794178.0        2616230133.0        1457051261.0        2762791137.0        2480527362.0        2282316169.0        3281794178.0        2616230133.0        1457051261.0        2762791137.0        2480527362.0        2282316169.0
Wiener process for Thermostat # 9        1 F T T  -9.2910693524630172E-01        1166003584.0        2600714055.0        3872174078.0        2880612728.0        1882007991.0         494403829.0        3777646647.0        1837464056.0        4204654757.0         664239048.0        4190510072.0        2959195122.0        3777646647.0        1837464056.0        4204654757.0         664239048.0        4190510072.0        2959195122.0
Wiener process for Thermostat # 10       1 F T T   1.3366952911596226E+00         761650024.0         680864561.0        2904345816.0         748682540.0        2447443637.0        2580309318.0        4215590817.0        3862461878.0        1087200967.0        1544910132.0         936383720.0        1611370123.0        4215590817.0        3862461878.0        1087200967.0        1544910132.0         936383720.0        1611370123.0
Wiener process for Thermostat # 11       1 F T T   7.8187386770189649E-01         552324830.0        2642641520.0        1783211911.0        3339339377.0        4033119469.0         168759756.0        1683636369.0         362165168.0         814316280.0         869382050.0         980203903.0        2062101717.0        1683636369.0         362165168.0         814316280.0         869382050.0         980203903.0        2062101717.0
Wiener process for Thermostat # 12       1 F T T   1.6765137594598394E+00        1972391982.0        3503770598.0          20751614.0        1202050388.0         772085881.0        1284068474.0         272317999.0         166758548.0         310112982.0         201045826.0        1680231254.0         118290799.0         272317999.0         166758548.0         310112982.0         201045826.0        1680231254.0         118290799.0
Wiener process for Thermostat # 13       1 F T T  -1.2693856048208782E-01        2340711414.0         217885740.0        1535240576.0        3632033282.0        3056362305.0         707028556.0        2245755202.0        1652682525.0        2865544364.0         721509566.0         209733568.0         592362218.0        2245755202.0        1652682525.0        2865544364.0         721509566.0         209733568.0         592362218.0