 # Version information for this restart file 
 # current date 2024-11-22 16:10:28.477
 # current working dir /scratch/work/courses/CHEM-GA-2671-2024fa/students/ra3194/comp-lab-class-2024/Week12-IntroAIMD/Runs/Water
 # Program compiled at                              Sat Dec 12 18:27:15 EST 2020
 # Program compiled on                                         cs001.nyu.cluster
 # Program compiled for                                                nyu-intel
 # Source code revision number                                       git:8c64c6e
 &GLOBAL
   PRINT_LEVEL  LOW
   PROJECT_NAME water_aimd_1ns_every0.5fs
   RUN_TYPE  MD
   WALLTIME 21600
 &END GLOBAL
 &MOTION
   &GEO_OPT
     OPTIMIZER  BFGS
     MAX_ITER  100
     MAX_DR     3.0000000000000001E-03
     &BFGS
     &END BFGS
   &END GEO_OPT
   &MD
     ENSEMBLE  NVT
     STEPS  1000
     TIMESTEP     4.9999999999999994E-01
     STEP_START_VAL  999
     TIME_START_VAL     4.9949999999999631E+02
     ECONS_START_VAL    -1.1023558357480233E+03
     TEMPERATURE     3.0000000000000000E+02
     &THERMOSTAT
       TYPE  GLE
       REGION  MASSIVE
       &GLE
         NDIM  5
         A_SCALE     1.0000000000000000E+00
         A_LIST     1.8595758612559999E+02    2.7263853498399998E-01    1.1526100454610001E+01   -3.6414578262600003E+01 \
             2.3173375816020001E+02
         A_LIST    -2.7809524712060002E-01    8.5951591808710006E-05    7.2189048017650004E-01   -1.9844539343859999E-01 \
             4.2409257583420001E-01
         A_LIST    -1.4825808131210000E+01   -7.2189048017650004E-01    1.3590902121280000E+00    5.1498896280349999E+00 \
            -9.9949268450990001E+00
         A_LIST    -1.0372189126880000E+01    1.9844539343859999E-01   -5.1498896280349999E+00    2.6661910891169999E+01 \
             1.1507715495310000E+01
         A_LIST     2.1801346360420001E+02   -4.2409257583420001E-01    9.9949268450990001E+00   -1.1507715495310000E+01 \
             3.0958394565589998E+02
         &THERMOSTAT_ENERGY
              -4.0052455775767036E-03
              -3.5438198040737488E-04
              -5.8831435139518199E-04
               7.9583019495658731E-03
              -6.2136651711345624E-03
               5.9902132071118341E-03
               1.9524992357288792E-03
              -6.5989858233627711E-03
               7.3763446083200757E-03
               4.4532436663624157E-03
               9.4213512127126649E-03
              -3.0037437980016558E-03
              -5.7631803421970941E-03
              -5.4309828527172362E-03
              -7.5758430926592575E-05
              -4.9949181197109695E-03
               1.1608446677773259E-02
              -2.9093347763595569E-03
               5.3412142890841416E-03
              -6.1993980828295488E-03
               5.9552445061463355E-04
               1.5875905947672591E-03
              -1.3574661992311408E-03
               1.1893357715268183E-03
              -4.0798138509166885E-03
               2.3000952968810291E-03
               1.7701160564345608E-03
               1.6759148474572352E-03
               4.6567829757824305E-03
               5.1719064010004117E-04
              -6.3795642214653694E-03
              -2.5976689086333105E-04
               3.9544269217860407E-05
               4.6046665855404185E-03
              -1.1704023505874978E-02
               1.0404392174887391E-02
              -1.6521892724362301E-03
               1.4145110860801615E-04
              -1.4041739813652611E-03
              -4.5174593879484864E-03
              -3.9622742150263960E-03
               1.9000327673936890E-03
               2.5664375211618224E-03
               7.0845793959751170E-03
              -4.6078646555453798E-03
               3.4465374372078367E-03
              -2.2745644864970529E-03
               4.2835887236483952E-03
              -1.5104723603298379E-03
              -5.1786237073925554E-03
               2.5996107422156414E-03
              -5.2104255484488856E-03
              -2.5541316247272637E-03
               7.7627572894108593E-03
              -5.2832769363392535E-03
               2.6966026805994641E-03
              -2.0200769856887871E-03
              -4.8067230081473431E-04
              -1.0930817083820267E-03
               5.6675611467283653E-03
               8.2721370185508450E-04
              -1.6418148661330953E-03
               1.4244528271171864E-02
              -4.3211900160709769E-03
               8.4817290631606995E-04
               5.5819492259592804E-05
              -1.0110440751478898E-02
               1.8982783031847137E-03
               1.5326464821956093E-02
               5.8976110593093802E-04
              -4.7939368606241049E-04
              -8.8808173370628959E-03
              -9.5337767402128219E-04
              -1.3774369543303874E-03
              -3.0697913735957538E-03
              -1.0407232502242646E-02
               3.1721148327356992E-03
               1.0217116797709780E-03
               8.7820149600849537E-03
              -9.0980123503318286E-03
               9.5245951357115066E-03
              -6.8236036329066732E-04
              -1.2683637606642287E-04
              -1.9470266060864570E-03
               1.2769790771063791E-03
               5.7568127277385119E-03
              -1.3798146978666025E-04
              -1.0909842969106830E-03
               3.3937990328353597E-03
              -1.5781138787358600E-03
               1.9165506605530358E-03
              -7.5617430615435924E-03
               1.1333489175825234E-03
              -3.5609463624082975E-03
              -9.0688229069260540E-03
               4.1094092306871999E-03
               8.9447369483233539E-03
              -2.0110976650911652E-03
               4.2406515812767687E-03
               1.8569904321043626E-04
              -2.3981142956000512E-03
              -6.9480658834047511E-03
              -1.0601931239773437E-03
              -3.9989800004980444E-03
               5.9315180658200475E-03
               4.7071617961028066E-03
               1.6834591431131351E-03
               7.4217199372128919E-04
               2.5943976395391430E-03
              -6.4982297675800459E-03
               2.5005451145758682E-03
              -6.3699292909774412E-05
               2.3502476592589996E-03
               6.0247687187393005E-03
               3.0488338635000192E-03
               5.6088761600958303E-03
              -1.7839956885126299E-02
               3.9119467315815162E-03
               1.7134194601740029E-03
               3.8827845097872803E-03
               4.2048788468482734E-03
               1.5773434868223480E-03
              -2.3904921240267595E-03
              -1.1604921297877400E-03
              -3.6707422545940093E-03
              -7.7799658763151374E-04
               1.7413676803596568E-03
              -3.8135871258684136E-04
              -9.7501722352833940E-04
              -4.8669425977933755E-03
              -4.8925328612186084E-04
               6.6481321242422764E-03
              -5.2191890258385240E-03
               9.0033464012325044E-03
               1.6194498576489481E-04
               2.8143005344373343E-04
              -1.8567101276734787E-03
              -5.8623443559111541E-03
               3.8681614506274127E-03
              -9.2878800141072849E-03
               6.0201485451813136E-03
              -1.9114410612175782E-03
               1.8674092742754691E-02
              -4.7638190775000791E-03
              -1.5734728380179253E-03
               3.9971784546421113E-04
               7.9753252570574518E-03
               1.2717623137564751E-03
               5.7237236238000158E-04
              -4.0535613536490586E-03
              -8.3924431785998392E-03
               2.0342350808515743E-03
               2.4225518174408878E-03
              -1.8346485687998979E-03
               2.4804030820894537E-03
               9.6570662511632349E-04
               4.8999189429931094E-03
               6.4065624687380111E-04
              -5.7523431685379371E-03
               2.7267684960697591E-03
              -6.5063590135154333E-03
              -2.9186205504708419E-03
              -2.1289224766699727E-03
               5.1121275731369400E-04
               3.0201861804365041E-03
               5.5746534357084031E-03
               3.8808395778051354E-03
              -6.8553133901536655E-03
              -1.0927572455083790E-02
               7.8150370064165031E-03
               4.5851428417391924E-04
              -4.2890158068447952E-03
              -1.0198389808686093E-03
               3.1303642249279134E-04
              -5.3756428055889462E-03
               2.4215732023467125E-03
               1.0792997853497207E-03
               4.9375045952215731E-03
              -2.7086855380303210E-03
               3.1277216766235410E-03
              -3.6017867967048996E-03
               1.6795122011517786E-03
               4.0901777207869626E-03
              -8.3955868106800301E-03
               7.8503978693043146E-03
              -3.9338382453838663E-03
               5.6725083046950896E-04
              -3.7089299181211952E-04
              -3.5259796253159508E-03
              -1.2825404375343969E-03
               1.8816702415002903E-03
              -3.2529172449876596E-03
              -5.2834797327419997E-03
               3.9239129748230191E-03
               6.3566877257718946E-03
              -2.4101149277371984E-03
              -5.6156092604629400E-03
               2.3247803318293117E-03
              -2.2682249871480587E-03
              -7.7571865925454863E-04
               1.3442028213271782E-03
              -7.2297928864327402E-03
               1.1256974812267142E-02
              -2.1972227373987540E-03
              -2.9121192242974941E-03
              -3.1232330363068985E-03
              -1.7234420274914726E-03
               2.2821272243069668E-03
               4.7179370452170402E-04
               1.2568390430463244E-03
               4.9817000395237232E-03
              -5.9717676055843669E-04
               4.1532381757759043E-03
              -1.0878447140925883E-02
               3.9356284556229420E-04
               3.9087315580329535E-03
              -4.4969353748897092E-03
               5.4986269088824124E-03
               1.4799976500202310E-04
              -7.3189285837324284E-03
              -2.8074960215419662E-03
               2.7205146676605768E-03
              -1.3072786106087383E-03
               5.9419807606994716E-03
              -6.6180035837777704E-04
              -1.1741714867289296E-03
               3.0541813879358341E-03
               2.4207833407811712E-03
              -3.7005847810788160E-03
               1.3060443538882006E-03
              -6.9278573393396492E-03
               3.2297528533379053E-03
               2.9543915130084723E-03
              -4.3838978674807863E-03
               3.5910737059574641E-03
               6.2696852866697716E-04
              -1.9871336995015932E-03
               1.6093173234302672E-03
               6.6336260810874155E-03
               1.4840172563702545E-03
               7.2895851704739777E-04
              -1.0019455051253472E-02
               4.4614685031839916E-03
               1.6280978420078491E-03
              -2.1889909464912001E-03
               2.6428879544730531E-03
               6.1888203799734896E-03
              -6.7471634310340318E-03
              -1.2835707731449109E-03
               9.6158826581527299E-04
              -5.7638029106107708E-05
              -6.5492969776023837E-05
              -6.0353862152638859E-03
              -3.7750149847632767E-03
               3.6365617537426021E-03
              -2.4034034624805262E-03
               1.0416717325331540E-02
              -3.1391183277682229E-03
               2.9792198458430080E-03
              -8.8322978196766228E-03
               8.3980505600489107E-03
               2.3987966021923384E-03
               3.1604123377278626E-03
               1.5469443941831761E-03
               8.2330792029471859E-03
              -4.1291100298304967E-03
              -2.0850780690550253E-03
              -3.0852187258086669E-03
              -6.5585638351927352E-03
               5.3099479410909853E-03
              -2.6593282155441848E-03
              -3.1785146304065905E-03
               1.5412878715506397E-03
               7.3571490877826938E-03
               1.9533740642390623E-03
               1.8710113711094558E-03
              -2.1553865133630210E-02
               1.3454958965023373E-02
              -4.1804176733334746E-03
               6.1996344965066967E-03
              -4.3645513390861302E-03
               2.7233531908173719E-03
               1.2401140274873393E-02
              -2.0223482866611343E-03
              -9.9193626918120375E-03
              -5.6919849600827049E-03
               3.2279779546445417E-03
              -5.9681134867167942E-03
              -1.8665176024637619E-03
              -4.1508191642012273E-03
               5.1570419175340641E-04
               4.0413497994760076E-03
               9.0019945141522322E-03
              -3.4914265207986882E-03
              -3.9835761397071390E-04
               5.2075108063105177E-03
              -5.3849151311161775E-03
              -1.5548870039356435E-03
              -2.0058346303210169E-03
              -1.3790150527797759E-03
              -2.1563055149982900E-03
               7.2661597106941133E-03
               9.2926768918501082E-04
              -1.4724094665057830E-03
               4.6576331634620724E-03
              -8.5612790979183451E-03
               3.0086475211273450E-03
              -2.2066647926820208E-03
              -2.6666158655490146E-03
               1.1186173879829547E-02
              -4.9599128822357813E-03
              -7.8813603725877337E-03
               2.1908877712569588E-03
               7.9059487515611999E-03
               1.3449502569106648E-03
               6.6908457992480063E-03
               1.7929202943265754E-03
               2.0622641116373385E-03
              -3.0266817156112853E-03
              -5.8245873982645307E-03
               8.8840713286298459E-03
              -6.1941473203295004E-03
              -7.8345167100944638E-03
               1.0660742683958016E-02
              -5.2706358136280496E-03
               2.0391720833627461E-03
               2.5324732075380904E-03
               6.6690426353994779E-03
              -3.8901544858081900E-03
              -4.5808694421219922E-03
              -6.1572860191655369E-03
              -8.2558042961228470E-03
               1.0464203528512506E-02
              -1.4371603604636609E-03
               1.6846182320967829E-03
               1.0305884139305403E-04
               1.7053609667772317E-02
               1.6821280011092392E-03
              -1.0190006309013580E-02
               4.2623392288253584E-03
               7.8197416290390655E-03
              -8.8815350244097410E-03
               8.3402587832060024E-04
               1.9638417694894644E-03
              -1.0786436719615604E-03
              -1.0947958692888804E-02
               4.3955157639976568E-03
              -1.2266642468901202E-03
               4.5290548606439617E-03
               1.5014061523338122E-04
              -2.9327140378180650E-03
               1.9713289397435591E-03
              -7.5467197354507623E-03
               2.0797061643837936E-03
              -6.2435497091072965E-03
               1.0243657700309071E-02
               1.4043998652466089E-03
              -1.3146024902877191E-03
              -4.6013855724683205E-03
               7.1219165724655817E-03
              -1.3773439689006631E-03
               7.1683058073126804E-05
              -1.0772960122280798E-02
              -2.6584249859816366E-03
              -4.4420689218101514E-05
               1.3290399351457472E-02
               3.8186892545933357E-03
              -7.0306637679432482E-04
              -3.9284655798780127E-03
              -1.4534380052293926E-04
               2.4755792719349896E-03
              -2.0589242804076387E-03
              -7.2593537439923847E-03
              -6.0034054686145203E-03
               7.7310810959842846E-03
              -1.0272521581465974E-02
               8.7867773573033700E-03
               3.5543548284390535E-03
              -1.0010461638359585E-03
               3.4235210163020298E-04
               1.3952216523138131E-03
               1.0876733840583842E-05
               1.5650742425281857E-02
              -2.7954847359870881E-03
              -1.5708765541702835E-02
               1.0271773733001992E-02
              -4.8891456241019543E-03
              -5.1522034561546628E-03
              -2.5912866234997865E-03
              -9.8943939275093220E-04
              -6.9554440297737207E-03
               1.1311933484927561E-02
              -4.8365639042593968E-04
              -1.0757504114595313E-03
              -5.0958335585499712E-03
               1.5243224216279741E-03
              -2.8413047740137843E-03
              -5.7752424778810768E-04
               4.7460130989668455E-03
              -1.0028700090674410E-02
               1.4665056941036421E-03
               1.1200083436235457E-02
              -9.5202742035621988E-03
               9.0411840906425497E-03
               7.7679779354233895E-03
              -2.9336523037041930E-03
               2.4993962658896446E-03
               7.1764422367709040E-03
              -9.1758644466188640E-03
               3.1448512861617282E-03
               6.3748694879124917E-04
               1.6615397188544077E-04
              -2.3178006273507634E-03
               4.3555240720032961E-03
              -6.1124496842685592E-03
              -3.2383807676771162E-03
               5.1677721132358141E-03
              -2.2572201721643335E-03
              -3.5650650665995580E-03
               1.0451036121976136E-02
              -1.8930147292411498E-03
               2.7763709833468573E-03
              -2.0547433377023604E-05
               3.2593229881109622E-03
              -1.6934202708807335E-04
              -1.8522423107636213E-03
              -7.5091938368853344E-03
               5.0384756960190650E-03
              -2.4630799913086280E-03
               4.1453978997654448E-04
               8.5543155142995542E-03
              -9.0802344290715521E-03
               2.3313942280504132E-04
              -9.6254765803379457E-04
               2.6088582442782785E-03
              -1.0397606671354954E-02
               1.4240368619323645E-03
               4.2357978807404089E-03
               6.6771009715192796E-04
               6.3224580476476519E-03
              -2.5745581437260790E-03
              -8.6918169582671928E-03
               3.6559031367613785E-03
               4.9991361783396793E-03
              -3.2423540612134408E-03
              -5.9603997365572769E-03
               2.2116136001029828E-03
               4.3564339777803704E-03
               3.5622191009386166E-03
              -6.3264126861413352E-04
              -7.1307334388913781E-04
              -2.3009862958830738E-03
               4.5983239900849000E-03
              -2.6157663866034748E-03
              -5.6150176617225621E-03
              -3.4590212959528517E-03
               1.5364805049579421E-02
              -1.6664864182604510E-03
              -1.0654176339207004E-02
              -4.6127695541981822E-03
               4.5970616302485820E-03
              -5.6156862928083409E-03
               3.0967243331363726E-03
              -8.2209145711715614E-04
               5.7886131927384656E-03
               7.5904852516415411E-03
              -2.9470210508600546E-03
              -1.9538431638641434E-03
              -3.1389726694427823E-03
               2.1309506675478464E-03
               2.5359397040916102E-03
               7.7597116021491906E-03
              -3.0648633283112091E-03
              -2.7259683800311047E-03
               5.2402139545032009E-03
               4.9143631256813938E-03
               5.8768331303013267E-03
               1.7328999646436887E-03
              -3.1809005083993308E-03
               4.6708424564249748E-03
              -6.8942920823618307E-03
               3.8463416508748593E-03
               1.8126153281995089E-03
               4.2778897158581341E-03
              -7.3595909928213018E-03
              -2.4180158008540705E-03
              -1.4869570804087761E-03
              -3.8641515256545452E-03
              -1.9301815176913635E-03
              -1.2942041439999187E-03
              -1.5237147944557408E-03
              -1.7120607298447086E-03
               9.7515569060887468E-04
               1.3092523172613169E-02
              -6.7470511944630720E-03
               2.5841278786449999E-03
               1.3250484288966980E-03
              -4.3723660456886304E-04
               2.1904508394948868E-03
               3.6464243287598549E-03
               3.5015054463418834E-03
              -2.8848938988252119E-04
              -5.7395814563482158E-03
              -8.8333414034563002E-04
               2.1509068545826201E-03
              -4.0119021731606849E-03
               1.0522332643481808E-03
               2.9449768121781465E-03
               2.8930947636076486E-03
              -1.0568395098013909E-04
               1.3292533564279491E-03
               1.1308661525527184E-02
              -1.6856873623671369E-02
               4.3127378258294531E-04
              -6.8660706757356902E-04
               1.5578425445747430E-03
              -9.0810301218753244E-03
               4.6977316481363208E-03
               4.7212838258763922E-03
              -1.5309038131911016E-03
               6.4990050750570530E-03
              -1.4170200613196616E-02
              -4.4604850364520681E-03
               8.7335190270281266E-03
               3.7062292698809081E-04
              -1.5183750296673103E-04
              -6.9368562584178096E-03
              -6.4903950460259907E-03
               4.9167626426402187E-03
              -2.6754825408385860E-03
              -6.3064204850286666E-03
               6.8993140972100860E-04
              -3.7805046588400620E-03
              -1.5154656633522379E-03
               4.0632867310417247E-03
               4.7040310777334378E-03
               8.7392700335213317E-04
              -1.6713314660331093E-03
              -9.4269749419451290E-03
              -5.7347855947818436E-04
              -3.7917851320682190E-03
               8.1139857465510742E-04
              -9.2396518912447867E-04
               4.3632427351126719E-03
               3.0896902135527384E-03
              -1.2369347973412487E-03
               7.4166964143664799E-03
               2.5005201562292626E-03
              -6.8720758625311290E-03
              -1.0419203322306215E-03
               3.4984218389445734E-03
              -3.9423993254246448E-03
              -5.6922232588012180E-04
               5.7656776505176513E-03
               1.4056608463449097E-03
              -1.2911099056140679E-02
               4.9210594784093306E-03
               3.4515293487188338E-03
              -2.3549790069669250E-03
               6.2588702305143348E-04
              -1.2018808656367155E-03
              -1.0654298116367649E-03
              -1.8150123081460462E-03
               1.1317722181061116E-02
              -3.4297014107247583E-03
               8.8850549598985112E-03
               2.5427410407538190E-03
              -3.1608844684547562E-04
              -4.0924116420886962E-03
              -4.8124123557205601E-03
              -6.9463884962743163E-03
              -1.8111496999208777E-03
               1.0188462981936175E-02
               4.0566135709850350E-03
              -3.3021937799169515E-03
               2.2018149361411484E-03
         &END THERMOSTAT_ENERGY
         &RNG_INIT
Wiener process for Thermostat # 1        1 F T T   8.9775274228955693E-01         763729258.0        2182815630.0        1816883415.0        1066729424.0        2674796944.0         356348066.0             12345.0             12345.0             12345.0             12345.0             12345.0             12345.0             12345.0             12345.0             12345.0             12345.0             12345.0             12345.0
Wiener process for Thermostat # 2        1 F T T   1.0987822301725423E+00        3965034595.0        3411742577.0        3774170409.0        3191532242.0        4082685227.0        1560777643.0        3692455944.0        1366884236.0        2968912127.0         335948734.0        4161675175.0         475798818.0        3692455944.0        1366884236.0        2968912127.0         335948734.0        4161675175.0         475798818.0
Wiener process for Thermostat # 3        1 F T T   2.4340757527843401E-01         520164219.0        1848885905.0        2986832923.0        4264676203.0        3571518754.0        3073504132.0        1015873554.0        1310354410.0        2249465273.0         994084013.0        2912484720.0        3876682925.0        1015873554.0        1310354410.0        2249465273.0         994084013.0        2912484720.0        3876682925.0
Wiener process for Thermostat # 4        1 F T T   9.9204659862460232E-01        3484113436.0        2329669731.0        1490315125.0        1536718481.0        3332060260.0        1431684492.0        2338701263.0        1119171942.0        2570676563.0         317077452.0        3194180850.0         618832124.0        2338701263.0        1119171942.0        2570676563.0         317077452.0        3194180850.0         618832124.0
Wiener process for Thermostat # 5        1 F T T  -9.2302528114612159E-01        2771895156.0        2570398436.0        4011591488.0        2243185508.0        2088115668.0        2125862931.0        1597262096.0        3906379055.0        3312112953.0        1016013135.0        4099474108.0         275305423.0        1597262096.0        3906379055.0        3312112953.0        1016013135.0        4099474108.0         275305423.0
Wiener process for Thermostat # 6        1 F T T   2.1770181947937070E-01        3562045432.0        3773073970.0         517147499.0        2186582247.0         505760692.0        2594030488.0          97147054.0        3131372450.0         829345164.0        3691032523.0        3006063034.0        4259826321.0          97147054.0        3131372450.0         829345164.0        3691032523.0        3006063034.0        4259826321.0
Wiener process for Thermostat # 7        1 F T T  -1.7973193918613969E-01        3924856775.0        1259972011.0        3604397490.0        2677869653.0        3521145316.0        1940354926.0         796079799.0        2105258207.0         955365076.0        2923159030.0        4116632677.0        3067683584.0         796079799.0        2105258207.0         955365076.0        2923159030.0        4116632677.0        3067683584.0
Wiener process for Thermostat # 8        1 F T T  -8.8479691538422445E-01        1070467323.0        3808028440.0        2425908924.0          87870707.0        2736125963.0        1926835999.0        3281794178.0        2616230133.0        1457051261.0        2762791137.0        2480527362.0        2282316169.0        3281794178.0        2616230133.0        1457051261.0        2762791137.0        2480527362.0        2282316169.0
Wiener process for Thermostat # 9        1 F T T   5.9400386120351645E-01         294974312.0         876410757.0        3316490696.0        2668308652.0        2720315105.0        1041936172.0        3777646647.0        1837464056.0        4204654757.0         664239048.0        4190510072.0        2959195122.0        3777646647.0        1837464056.0        4204654757.0         664239048.0        4190510072.0        2959195122.0
Wiener process for Thermostat # 10       1 F T T   1.2436799339469692E-01        3466586745.0        3514441763.0         319489603.0         935929779.0         980683700.0        2872837080.0        4215590817.0        3862461878.0        1087200967.0        1544910132.0         936383720.0        1611370123.0        4215590817.0        3862461878.0        1087200967.0        1544910132.0         936383720.0        1611370123.0
Wiener process for Thermostat # 11       1 F T T  -1.3492599939582866E+00        2646923687.0         269911394.0        3123559664.0        4197187544.0        3691682276.0        2566853960.0        1683636369.0         362165168.0         814316280.0         869382050.0         980203903.0        2062101717.0        1683636369.0         362165168.0         814316280.0         869382050.0         980203903.0        2062101717.0
Wiener process for Thermostat # 12       1 F T T  -1.7617067609957300E+00         874059353.0        1962557728.0        2974164949.0        4087775623.0         149015242.0        3758833589.0         272317999.0         166758548.0         310112982.0         201045826.0        1680231254.0         118290799.0         272317999.0         166758548.0         310112982.0         201045826.0        1680231254.0         118290799.0
Wiener process for Thermostat # 13       1 F T T  -7.6977021371894983E-01         726430837.0        2243629094.0        1090071616.0        3499496981.0        1945508799.0         350521599.0        2245755202.0        1652682525.0        2865544364.0         721509566.0         209733568.0         592362218.0        2245755202.0        1652682525.0        2865544364.0         721509566.0         209733568.0         592362218.0