 # Version information for this restart file 
 # current date 2024-11-22 16:10:13.515
 # current working dir /scratch/work/courses/CHEM-GA-2671-2024fa/students/ra3194/comp-lab-class-2024/Week12-IntroAIMD/Runs/Water
 # Program compiled at                              Sat Dec 12 18:27:15 EST 2020
 # Program compiled on                                         cs001.nyu.cluster
 # Program compiled for                                                nyu-intel
 # Source code revision number                                       git:8c64c6e
 &GLOBAL
   PRINT_LEVEL  LOW
   PROJECT_NAME water_aimd_1ns_every0.5fs
   RUN_TYPE  MD
   WALLTIME 21600
 &END GLOBAL
 &MOTION
   &GEO_OPT
     OPTIMIZER  BFGS
     MAX_ITER  100
     MAX_DR     3.0000000000000001E-03
     &BFGS
     &END BFGS
   &END GEO_OPT
   &MD
     ENSEMBLE  NVT
     STEPS  1000
     TIMESTEP     4.9999999999999994E-01
     STEP_START_VAL  997
     TIME_START_VAL     4.9849999999999625E+02
     ECONS_START_VAL    -1.1023558357480233E+03
     TEMPERATURE     3.0000000000000000E+02
     &THERMOSTAT
       TYPE  GLE
       REGION  MASSIVE
       &GLE
         NDIM  5
         A_SCALE     1.0000000000000000E+00
         A_LIST     1.8595758612559999E+02    2.7263853498399998E-01    1.1526100454610001E+01   -3.6414578262600003E+01 \
             2.3173375816020001E+02
         A_LIST    -2.7809524712060002E-01    8.5951591808710006E-05    7.2189048017650004E-01   -1.9844539343859999E-01 \
             4.2409257583420001E-01
         A_LIST    -1.4825808131210000E+01   -7.2189048017650004E-01    1.3590902121280000E+00    5.1498896280349999E+00 \
            -9.9949268450990001E+00
         A_LIST    -1.0372189126880000E+01    1.9844539343859999E-01   -5.1498896280349999E+00    2.6661910891169999E+01 \
             1.1507715495310000E+01
         A_LIST     2.1801346360420001E+02   -4.2409257583420001E-01    9.9949268450990001E+00   -1.1507715495310000E+01 \
             3.0958394565589998E+02
         &THERMOSTAT_ENERGY
              -3.8499678238279119E-03
              -2.1935658329554894E-04
              -4.1919835063309067E-04
               8.7383530484270687E-03
              -6.2729745072232831E-03
               5.5988223464597106E-03
               1.6839539067775415E-03
              -7.0257985174584630E-03
               7.4368938020791687E-03
               4.1395659806528068E-03
               8.8531366160081587E-03
              -3.4579101914591136E-03
              -6.3017013061104918E-03
              -5.5652399903006553E-03
              -5.6553351319371691E-04
              -4.7817311584960470E-03
               1.1561739059172096E-02
              -3.3363944209511189E-03
               6.5924572521744587E-03
              -6.1587840386070876E-03
               5.1769470976777881E-04
               1.0764242047847622E-03
              -1.5059337491666275E-03
               1.1027092126645755E-03
              -4.3239308539290890E-03
               2.4301414009827741E-03
               1.2510454337264013E-03
               2.5815067507773911E-03
               4.6634192635146721E-03
              -9.0404743453113465E-04
              -6.1807547494731356E-03
              -4.1869668107005591E-04
              -7.2920741596200410E-05
               4.2045372537317374E-03
              -1.1764683384340649E-02
               8.9782665605726911E-03
              -1.1963171496470416E-03
               2.8792326165427652E-04
              -1.8047095487404958E-03
              -4.2527315418967402E-03
              -4.0277751193061977E-03
               2.0217132192693259E-03
               2.5967476360215132E-03
               6.5971023033790620E-03
              -4.3902146457019458E-03
               3.7258268582325820E-03
              -2.1524738057752744E-03
               3.8916054222502116E-03
              -1.1508126752731581E-03
              -5.2116969602770185E-03
               2.6623367218625875E-03
              -5.0533385980984086E-03
              -2.7175398401383154E-03
               7.7812882762451638E-03
              -5.0033541097740568E-03
               3.2053139567837616E-03
              -1.1173177805866271E-03
              -2.8694003276359673E-05
              -1.0059713362649441E-03
               5.3469370402661493E-03
               8.6514377803557886E-04
              -1.6068636268215108E-03
               1.4298646051612135E-02
              -3.6959551903733667E-03
               8.0983323511928953E-04
               3.3758632040258724E-05
              -1.0135135145482680E-02
               2.0402738724973153E-03
               1.5293727919525378E-02
               1.2967588777256351E-03
              -1.8938329066788492E-03
              -8.8384031671935349E-03
              -8.2759871497958338E-04
              -1.4601209906826165E-03
              -3.1437544119461971E-03
              -1.0300703661899434E-02
               3.4531017199101299E-03
               9.1593309660320489E-04
               9.2500567920432344E-03
              -9.5776176000190120E-03
               9.5788734693989311E-03
              -1.6131043318970942E-03
               3.1594895638471885E-05
              -1.7123498240661547E-03
              -1.9057803568741966E-04
               5.6588375628104353E-03
              -2.7975441407310090E-04
              -1.1616608724587672E-03
               3.1168008234084919E-03
              -9.8219846728535482E-04
               2.0482053367693724E-03
              -8.2922515595981652E-03
               1.2067889372726196E-03
              -3.6846764226507187E-03
              -9.3226451567421306E-03
               4.0128081312450067E-03
               8.1630100550370600E-03
              -2.5328380660430755E-03
               3.6395289036225418E-03
               2.8529475851883082E-04
              -2.7892335570351002E-03
              -7.2452137862433503E-03
              -9.2654210825098525E-04
              -4.2733304477909359E-03
               5.9400569079814244E-03
               4.7152493618963023E-03
               1.4906686725586445E-03
               6.0046554494183006E-04
               2.6745239550651024E-03
              -6.7400917072647174E-03
               2.6597245183253597E-03
              -6.8607301018946726E-04
               2.2548180180901782E-03
               6.0337859307554777E-03
               3.2670424755795019E-03
               4.9895697398289933E-03
              -1.7224839411396312E-02
               4.9980349746907684E-03
               1.7352503799093501E-03
               3.8828896921755834E-03
               3.9423301275986686E-03
               1.6094796929228333E-03
              -2.3969128783313896E-03
              -1.4227185454632643E-03
              -3.4224653318563805E-03
              -1.9682638565961439E-03
               1.7341114576507784E-03
               1.0042195898077029E-04
              -1.1698340298740386E-03
              -4.7550984198995510E-03
               8.7895995905763969E-05
               7.2343614575519017E-03
              -5.4106059844685073E-03
               8.8242608352671250E-03
               3.7350301106879331E-04
               1.1559538485295092E-03
              -2.1408445616296883E-03
              -5.9657704696947445E-03
               4.2296664265405156E-03
              -9.2100384935660095E-03
               5.8910152599109594E-03
              -1.8134466414827595E-03
               1.8640469600520477E-02
              -4.2909451204370232E-03
              -1.7762775516463451E-03
               2.4889603252784177E-04
               7.8983192412530635E-03
               8.6561542780241581E-04
               9.1883674153498470E-04
              -3.9995667342076994E-03
              -8.0759859248705056E-03
               1.6342485287722662E-03
               2.4350380041490627E-03
              -1.9016975473702068E-03
               2.5608039760379791E-03
               1.0021477657986555E-03
               6.6302664551193572E-03
               3.5325983951331734E-04
              -4.9422417097757599E-03
               2.6067565677722251E-03
              -6.3710949866774280E-03
              -2.9699349171902361E-03
              -2.1609116924408926E-03
               5.7656873989614030E-04
               3.4486557290389578E-03
               4.7293955543621638E-03
               3.6257455283395675E-03
              -8.0677701826546867E-03
              -1.0876835731435441E-02
               7.9910220080789685E-03
               3.8613897303378219E-04
              -2.8213534691158967E-03
              -3.9111301103707995E-04
               3.1606442243857562E-04
              -5.4284932921420661E-03
               2.6342999933979673E-03
               1.1772385913406643E-03
               5.1824466541183301E-03
              -2.3710790721429703E-03
               4.3362380124226602E-03
              -3.7052515533390977E-03
               1.8680624068487415E-03
               5.0451925031124679E-03
              -8.4163112949677335E-03
               8.1200383700522558E-03
              -4.1402148289353116E-03
              -2.6107340500901625E-04
              -3.7193351182373212E-04
              -3.4680993217399737E-03
              -1.0580799710466810E-03
               1.9121223589813870E-03
              -2.5501726486894596E-03
              -5.0917575861236675E-03
               3.6801429792901368E-03
               6.0635342307610793E-03
              -2.4240356667649854E-03
              -5.7495846021258451E-03
               2.9910325912679953E-03
              -2.2378311791247107E-03
              -6.2124961813506173E-04
               1.9402368360393856E-03
              -5.5547812337583598E-03
               1.1045010244457224E-02
              -1.8854824268140079E-03
              -2.8273862274859275E-03
              -3.1256110037494837E-03
              -1.6556917016689713E-03
               2.3430582127700250E-03
               3.5568228593895542E-04
               1.2939472197393141E-03
               4.6449039907968340E-03
              -1.1821212227626408E-03
               3.7794440292242548E-03
              -1.0840114390320942E-02
               1.2795414067672554E-03
               4.0670168154338564E-03
              -4.1156777152299680E-03
               5.4024949564212181E-03
              -1.6949926350726837E-03
              -6.9700390599913642E-03
              -2.6471071770426510E-03
               2.8527211703625811E-03
              -1.5264402648812660E-03
               5.9721472378723222E-03
              -6.7651986767829346E-05
              -8.0429622399586312E-04
               4.0622378839012471E-03
               2.3886421456961126E-03
              -4.3691888320708701E-03
               1.2706150592184319E-03
              -6.7547537898520974E-03
               1.5100370043718268E-03
               2.9141854335647034E-03
              -4.3643993425063156E-03
               3.6710557383987921E-03
               3.8728301095910281E-04
              -2.1505289212192433E-03
               1.3964775581637450E-03
               7.0581889584846466E-03
               8.6589341821978276E-04
               6.4192865845591647E-04
              -9.4642857850564654E-03
               4.6478256121391497E-03
               1.2965961761583996E-03
              -1.9971040223993263E-03
               2.6706405920694509E-03
               6.3786535815671345E-03
              -6.3029350694536173E-03
              -5.5774715778569427E-04
               1.2637622682395435E-03
              -1.2712212872853610E-04
              -4.6392804565488770E-04
              -5.8229157864671402E-03
              -3.7797520826934987E-03
               3.4321458760871947E-03
              -3.0659179222725756E-03
               1.0076483629780463E-02
              -3.0664837322777931E-03
               2.9743460723635319E-03
              -9.3590891020967834E-03
               9.4442893718698316E-03
               2.6928996085114339E-03
               2.9361803586142872E-03
               1.3215444454699355E-03
               8.3816028889335849E-03
              -3.8928792208542018E-03
              -2.1294182401376083E-03
              -2.7844639281040169E-03
              -6.5476211009173006E-03
               5.4136085400499235E-03
              -3.2809952860860291E-03
              -3.1806385027178031E-03
               1.5178136953588198E-03
               7.6962039899787409E-03
               1.5305850576119867E-03
               5.9840077472364636E-04
              -2.1399391857655506E-02
               1.3990628921436505E-02
              -3.9415166816308212E-03
               6.1616836127627471E-03
              -4.1020062871770504E-03
               2.3100697140916362E-03
               1.2411196788601246E-02
              -1.5101698529974737E-03
              -9.9173168673981262E-03
              -5.8426004786565570E-03
               2.7802106994084669E-03
              -5.6815194321039103E-03
              -1.8572015386213643E-03
              -4.0681911482043781E-03
               5.6759192546093629E-04
               4.3342986333491235E-03
               9.1129223130320056E-03
              -3.4465955946635022E-03
              -9.1670645092105211E-04
               4.9717838114221730E-03
              -5.2915119450786417E-03
              -9.8697997792154346E-04
              -1.4465047703712403E-03
              -7.9954583374893169E-04
              -2.1180052371176776E-03
               7.3760522817757522E-03
               9.5185029212003689E-04
              -1.8773947312594194E-03
               5.0147395667078081E-03
              -8.2927245276671648E-03
               2.8680517970755331E-03
              -2.3161318436138185E-03
              -2.3684032343963997E-03
               1.1198996959858539E-02
              -4.9717901190471526E-03
              -7.7229704614121819E-03
               2.9319084609124462E-03
               7.7230040203928952E-03
               7.1751529722067370E-04
               6.6148941189355338E-03
               2.7254114003563493E-03
               1.2362663399345273E-03
              -2.6145839401960683E-03
              -5.0001934023868079E-03
               8.0728322129229729E-03
              -6.3314418392940025E-03
              -7.6430430674834550E-03
               1.0779753526167684E-02
              -4.8883866244277922E-03
               2.2950118617804148E-03
               2.5716425647682229E-03
               6.2687546414793667E-03
              -3.9219488756034098E-03
              -4.1998137746702057E-03
              -5.5853567825888337E-03
              -8.1988700057796654E-03
               1.0760280271515031E-02
              -1.6418512634825265E-03
               2.5516000969561560E-03
               1.1506979264503641E-03
               1.7061220613743922E-02
               1.4714432751742697E-03
              -1.0905719086316363E-02
               4.2236630038002794E-03
               7.5969896681313811E-03
              -8.8527698982880966E-03
               1.0341384072349801E-03
               1.8743092613619252E-03
              -6.9062905059704284E-04
              -1.1043329325110991E-02
               4.5232484728296241E-03
              -1.1679506729061026E-03
               4.7240595834391755E-03
               9.7057603386194757E-05
              -2.9362968708916419E-03
               2.0300731617196202E-03
              -7.5243356876200929E-03
               2.1542291840017103E-03
              -6.4862620811266172E-03
               1.0428214122459112E-02
               1.5707941423896866E-03
              -1.0731650982488232E-03
              -4.4171233574944605E-03
               5.8325104926073229E-03
              -4.8636159439613229E-04
               8.2710807073435927E-05
              -1.1020613985551502E-02
              -2.1943777038848956E-03
               1.7300475089498185E-05
               1.3288059737892967E-02
               3.6327897434986541E-03
              -6.9584784964550682E-04
              -4.0417363950235293E-03
              -1.4826714504135303E-04
               1.9882843270547434E-03
              -2.1295419391851459E-03
              -7.2160244272641873E-03
              -5.9657611686758823E-03
               8.1547479134571055E-03
              -1.0116440400650007E-02
               8.4513212609595989E-03
               3.7548353534827684E-03
              -1.0919020985736686E-03
               8.6673658300173706E-05
               1.4334441252163586E-03
               6.6979311404037089E-05
               1.5639733198120211E-02
              -3.8334090021488070E-03
              -1.4495198968257562E-02
               1.0265372094090348E-02
              -4.6061397701256017E-03
              -5.9236845564968731E-03
              -2.9129761376253849E-03
              -7.5941424474066581E-04
              -6.9069627700072897E-03
               1.0976318808973703E-02
              -3.3530554054256605E-04
              -1.4277453045010928E-03
              -5.0065977796108540E-03
               1.5367770777082546E-03
              -2.6248297741129616E-03
              -5.7644994216985313E-04
               4.3275615560969417E-03
              -1.0021772342959801E-02
               3.2267088402402411E-03
               1.1660343326229757E-02
              -9.5893309661273379E-03
               9.5693597251231242E-03
               7.6688787398282001E-03
              -1.9782400292423234E-03
               2.4985052816548434E-03
               7.5153207579115155E-03
              -9.2155881334646441E-03
               3.2141517024298592E-03
               6.4541873333451066E-04
               9.0434566652823232E-04
              -2.3119681934335159E-03
               4.2923331781475910E-03
              -5.5920704158235312E-03
              -3.2890610086779987E-03
               5.1071116254266203E-03
              -2.2903096331198347E-03
              -3.3100625236773319E-03
               9.9717511021435289E-03
              -1.6686299454259285E-03
               2.4491566484348827E-03
              -8.6710913736733758E-04
               3.4288779712259988E-03
              -7.0758495000350114E-04
              -1.8467179606128840E-03
              -6.6687882213408711E-03
               4.9851507516501725E-03
              -2.0416006479361281E-03
               8.0332189909708906E-04
               8.0509062958545423E-03
              -9.3527870903696870E-03
               2.5169732192535931E-04
              -1.0640138878783283E-03
               3.9945906310567643E-03
              -9.8251660427086038E-03
               1.4985223328007396E-03
               4.3511314934625974E-03
               5.5656807944125762E-04
               6.3550837601772017E-03
              -2.9578126445465136E-03
              -8.7332262936819401E-03
               3.7120423065454375E-03
               4.9973236187142106E-03
              -3.1233907571729088E-03
              -6.0974456541046575E-03
               1.6324018088922042E-03
               4.3750869506066735E-03
               3.0694811021188080E-03
              -8.8116309291441273E-04
              -7.3957403033281049E-04
              -2.2310305883857478E-03
               5.1249669880413613E-03
              -3.3618508301320638E-03
              -5.2348774759288985E-03
              -3.4767647140656645E-03
               1.4824156672463290E-02
              -1.8121310929577277E-03
              -1.0575214941221550E-02
              -4.6316808731232968E-03
               5.0946439741508323E-03
              -5.6424110610583597E-03
               1.9167440932141115E-03
              -1.1100001631217458E-03
               5.9417668040236508E-03
               7.4517156003304479E-03
              -2.9395469165168350E-03
              -8.6719294814551959E-04
              -3.1370010733193557E-03
               2.0757976097978800E-03
               2.6333891605060371E-03
               7.8126341273109367E-03
              -3.4245156300236621E-03
              -2.5663488701620340E-03
               5.3647073716049445E-03
               5.0043119676489722E-03
               5.8964290342371044E-03
               1.7819785271952679E-03
              -3.4125270414870927E-03
               4.6707239155365371E-03
              -5.0406667896639081E-03
               3.7364726072215805E-03
               1.9814186602451862E-03
               4.4777860222145506E-03
              -7.3871835690236861E-03
              -1.4150625777382966E-03
              -1.2443626188929169E-03
              -3.6531976646055259E-03
              -1.9120460732774929E-03
              -1.6691716394056193E-03
              -1.6714925483127803E-03
              -1.8680135741019560E-03
               7.1371576755598000E-04
               1.3111061760134265E-02
              -6.6963954600568849E-03
               2.5805692916336760E-03
               1.1089671115680211E-03
               2.7095164494169680E-04
               2.1758148673326123E-03
               3.6178104761940746E-03
               3.5681214312295812E-03
               1.5371468299694391E-04
              -5.7991098967786316E-03
              -1.6035169937637529E-04
              -9.3226226080832773E-04
              -5.1536765672805726E-03
               1.7791848579313194E-03
               2.8558906782017940E-03
               3.1833628403804210E-03
               9.7817039611023448E-05
               1.4416784090606504E-03
               1.1307344602106646E-02
              -1.7130969384779166E-02
               8.1066386863724740E-04
              -9.4033508587845792E-04
               1.2405964299767136E-03
              -9.1282275759655748E-03
               3.1834209261425999E-03
               4.7604493751709923E-03
              -1.3484813167300986E-03
               6.6009739793321792E-03
              -1.3495223051598729E-02
              -5.2810529524045221E-03
               8.7848713471074067E-03
               2.3826125292536332E-03
               1.0182041792910460E-05
              -6.9552410412117406E-03
              -6.5065162037618793E-03
               4.6429136997102084E-03
              -2.9696338927345683E-03
              -6.0408674762940217E-03
               1.6068801596245289E-03
              -3.9800040526465144E-03
              -9.0584381097867650E-04
               4.1646095678948662E-03
               4.6416331681363122E-03
               8.3995210924432250E-04
              -2.4895663449491026E-03
              -8.0732895197334464E-03
              -6.0567752154596440E-04
              -3.7975571545078757E-03
               2.2905535789116446E-03
              -9.4086174081080428E-04
               4.0943963365139575E-03
               2.5614390525136549E-03
              -1.8081340842869107E-03
               7.4740588075153614E-03
               2.6922287659267969E-03
              -6.9149150141500082E-03
              -1.4877082605321782E-03
               3.5229229177503804E-03
              -4.1081121135150217E-03
              -3.3017959183026855E-05
               5.8798612536897863E-03
               1.4848085702682025E-03
              -1.3138341029847976E-02
               4.8432335381939232E-03
               3.5952096065714205E-03
              -2.4271176632916724E-03
               9.7612996532624565E-04
              -1.1661182226791961E-03
              -1.1100118301680460E-03
              -2.0933167984023889E-03
               1.0379039104415214E-02
              -3.0891515680928263E-03
               8.9835791290601378E-03
               2.8396461069491070E-03
              -3.9356427187731797E-04
              -2.8570327383372700E-03
              -4.1296754182819258E-03
              -6.0136424123548894E-03
               2.3359405489323343E-04
               9.6066974961633769E-03
               3.9629234703650162E-03
              -3.5674256873293375E-03
               2.1738466341033611E-03
         &END THERMOSTAT_ENERGY
         &RNG_INIT
Wiener process for Thermostat # 1        1 F T T   2.3618670345061391E-01        1935899135.0        3080338053.0         682668229.0          19706131.0         517119713.0        3313480422.0             12345.0             12345.0             12345.0             12345.0             12345.0             12345.0             12345.0             12345.0             12345.0             12345.0             12345.0             12345.0
Wiener process for Thermostat # 2        1 F T T  -1.6734974504590521E+00        3957440718.0        3551167598.0        3844432424.0         319628627.0        2394950763.0        3040573613.0        3692455944.0        1366884236.0        2968912127.0         335948734.0        4161675175.0         475798818.0        3692455944.0        1366884236.0        2968912127.0         335948734.0        4161675175.0         475798818.0
Wiener process for Thermostat # 3        1 F T T  -4.1089960405161025E-01         103243118.0         918080487.0        1240818166.0        2434303038.0         818909518.0        2816986690.0        1015873554.0        1310354410.0        2249465273.0         994084013.0        2912484720.0        3876682925.0        1015873554.0        1310354410.0        2249465273.0         994084013.0        2912484720.0        3876682925.0
Wiener process for Thermostat # 4        1 F T T   1.1928142965850277E+00         509639352.0        3404281231.0        1395594055.0        2614958971.0         545139151.0        2381272251.0        2338701263.0        1119171942.0        2570676563.0         317077452.0        3194180850.0         618832124.0        2338701263.0        1119171942.0        2570676563.0         317077452.0        3194180850.0         618832124.0
Wiener process for Thermostat # 5        1 F T T  -7.5007721996167498E-01        3833968159.0        1638833895.0        1508332373.0        3074404069.0         732841824.0          47285157.0        1597262096.0        3906379055.0        3312112953.0        1016013135.0        4099474108.0         275305423.0        1597262096.0        3906379055.0        3312112953.0        1016013135.0        4099474108.0         275305423.0
Wiener process for Thermostat # 6        1 F T T  -2.6291692692048291E-01        1656873006.0        3295030594.0         827492222.0        2052010585.0        1386585599.0         522147379.0          97147054.0        3131372450.0         829345164.0        3691032523.0        3006063034.0        4259826321.0          97147054.0        3131372450.0         829345164.0        3691032523.0        3006063034.0        4259826321.0
Wiener process for Thermostat # 7        1 F T T   6.4066344680431464E-01        1822745162.0        1843521280.0        4271037390.0        1394500470.0        3317609620.0        2325799825.0         796079799.0        2105258207.0         955365076.0        2923159030.0        4116632677.0        3067683584.0         796079799.0        2105258207.0         955365076.0        2923159030.0        4116632677.0        3067683584.0
Wiener process for Thermostat # 8        1 F T T  -7.5612577179608875E-01        1240124796.0         857941258.0        4213409599.0         823308722.0        3502408938.0        3082359483.0        3281794178.0        2616230133.0        1457051261.0        2762791137.0        2480527362.0        2282316169.0        3281794178.0        2616230133.0        1457051261.0        2762791137.0        2480527362.0        2282316169.0
Wiener process for Thermostat # 9        1 F T T   1.8915528192972031E+00          22827244.0         326611995.0        3738255671.0        4022819142.0        2105946486.0        2590996293.0        3777646647.0        1837464056.0        4204654757.0         664239048.0        4190510072.0        2959195122.0        3777646647.0        1837464056.0        4204654757.0         664239048.0        4190510072.0        2959195122.0
Wiener process for Thermostat # 10       1 F T T   2.0700220050147049E+00         132487144.0        1796747494.0        3423748727.0        1522402181.0        3208828022.0         565943726.0        4215590817.0        3862461878.0        1087200967.0        1544910132.0         936383720.0        1611370123.0        4215590817.0        3862461878.0        1087200967.0        1544910132.0         936383720.0        1611370123.0
Wiener process for Thermostat # 11       1 F T T   2.1323553816971000E-01         513822154.0        1209659296.0        2183469411.0         637027977.0        3038027171.0        2957022555.0        1683636369.0         362165168.0         814316280.0         869382050.0         980203903.0        2062101717.0        1683636369.0         362165168.0         814316280.0         869382050.0         980203903.0        2062101717.0
Wiener process for Thermostat # 12       1 F T T  -9.1734901952099479E-01        1796342452.0        2656542036.0        1009886957.0        1359644042.0        1957681488.0        2218770508.0         272317999.0         166758548.0         310112982.0         201045826.0        1680231254.0         118290799.0         272317999.0         166758548.0         310112982.0         201045826.0        1680231254.0         118290799.0
Wiener process for Thermostat # 13       1 F T T  -1.2725617723776657E+00        3697924450.0         894804474.0        2522641687.0        4163138712.0         175765073.0        2733136311.0        2245755202.0        1652682525.0        2865544364.0         721509566.0         209733568.0         592362218.0        2245755202.0        1652682525.0        2865544364.0         721509566.0         209733568.0         592362218.0